"Displacements:0","Displacements:1","Stress/Strain:0","Stress/Strain:1","Stress/Strain:2","Stress/Strain:3","Stress/Strain:4","Stress/Strain:5","Stress/Strain:6","Stress/Strain:7","Stress/Strain:8","Stress/Strain:9","Stress/Strain:10","Stress/Strain:11","Stress/Strain:12","Principal Stress:0","Principal Stress:1","Principal Stress:2","Principal Stress:3","Principal Stress:4","Principal Stress:5","Principal Stress:6","nodes:0","nodes:1","nodes:2"
0,0,0.053917,0.023107,0.023107,0.015222,0,0,0.080105,6.9389e-18,0,0.079154,0,0,0,0.060169,0.016855,0.023107,22.329,0.033377,0.040551,3.1519e-06,0,0,0
0.0032042,0.0031661,0.038547,0.0025462,0.012328,0.006073,0,0,0.068169,-0.025432,0,0.03158,0,0,0,0.039544,0.0015494,0.012328,9.3218,0.017807,0.033915,1.3425e-06,0.04,0,0
0.0054535,0.0049329,0.028648,0.00078923,0.0088311,0.0017981,0,0,0.051523,-0.020909,0,0.0093503,0,0,0,0.028763,0.00067365,0.0088311,3.6778,0.012756,0.025029,5.2633e-07,0.08,0,0
0.0073261,0.0062457,0.024667,-0.00043161,0.0072705,0.00087668,0,0,0.04523,-0.020026,0,0.0045587,0,0,0,0.024697,-0.0004622,0.0072705,1.9981,0.010502,0.022321,3.4871e-07,0.12,0,0
0.0090719,0.0071536,0.02353,-0.00049265,0.0069113,0.00031286,0,0,0.043209,-0.01925,0,0.0016268,0,0,0,0.023534,-0.00049672,0.0069113,0.74601,0.0099829,0.021315,3.0246e-07,0.16,0,0
0.010783,0.0077619,0.023461,-0.00044683,0.0069043,-1.5229e-06,0,0,0.043048,-0.019113,0,-7.9192e-06,0,0,0,0.023461,-0.00044683,0.0069043,-0.0036497,0.0099729,0.021211,2.9903e-07,0.2,0,0
0.012516,0.0081404,0.024058,-0.00033699,0.0071162,-0.00020692,0,0,0.044048,-0.019378,0,-0.001076,0,0,0,0.02406,-0.00033874,0.0071162,-0.48595,0.010279,0.021656,3.2087e-07,0.24,0,0
0.014307,0.0083582,0.025039,-0.00022214,0.0074451,-0.00032246,0,0,0.045745,-0.019935,0,-0.0016768,0,0,0,0.025043,-0.00022625,0.0074451,-0.73121,0.010754,0.02244,3.5998e-07,0.28,0,0
0.016175,0.0084843,0.026175,-0.00011785,0.0078172,-0.00035458,0,0,0.047731,-0.020631,0,-0.0018438,0,0,0,0.02618,-0.00012263,0.0078172,-0.77248,0.011292,0.023367,4.0938e-07,0.32,0,0
0.018125,0.0085851,0.027243,-3.0681e-05,0.0081636,-0.00030996,0,0,0.049606,-0.021305,0,-0.0016118,0,0,0,0.027246,-3.4203e-05,0.0081636,-0.65105,0.011792,0.024244,4.5979e-07,0.36,0,0
0.020144,0.0087166,0.028053,3.4802e-05,0.0084263,-0.00020937,0,0,0.051029,-0.021818,0,-0.0010887,0,0,0,0.028054,3.3238e-05,0.0084263,-0.42812,0.012171,0.024909,5.0062e-07,0.4,0,0
0.022207,0.0089166,0.028487,7.3763e-05,0.0085682,-8.145e-05,0,0,0.051789,-0.022086,0,-0.00042354,0,0,0,0.028487,7.353e-05,0.0085682,-0.16424,0.012376,0.025261,5.2334e-07,0.44,0,0
0.024287,0.0092003,0.02852,8.6481e-05,0.008582,4.024e-05,0,0,0.051839,-0.022088,0,0.00020925,0,0,0,0.02852,8.6425e-05,0.008582,0.081086,0.012396,0.02528,5.2492e-07,0.48,0,0
0.026355,0.0095604,0.028223,7.7931e-05,0.0084903,0.00012786,0,0,0.051305,-0.021872,0,0.00066489,0,0,0,0.028224,7.735e-05,0.0084903,0.26029,0.012264,0.025024,5.0887e-07,0.52,0,0
0.028391,0.0099718,0.027732,5.1584e-05,0.0083351,0.00016385,0,0,0.050432,-0.021537,0,0.00085201,0,0,0,0.027733,5.0614e-05,0.0083351,0.33913,0.01204,0.024609,4.8327e-07,0.56,0,0
0.030389,0.010401,0.027204,9.4669e-06,0.008164,0.00015007,0,0,0.049504,-0.021202,0,0.00078036,0,0,0,0.027205,8.6388e-06,0.008164,0.31617,0.011792,0.024173,4.5691e-07,0.6,0,0
0.032352,0.010815,0.02677,-4.1118e-05,0.0080187,0.00010176,0,0,0.048754,-0.020955,0,0.00052916,0,0,0,0.02677,-4.1505e-05,0.0080187,0.21746,0.011583,0.023827,4.3625e-07,0.64,0,0
0.03429,0.01119,0.026505,-8.9967e-05,0.0079245,4.0569e-05,0,0,0.048309,-0.020838,0,0.00021096,0,0,0,0.026505,-9.0029e-05,0.0079245,0.087402,0.011447,0.02363,4.2424e-07,0.68,0,0
0.036216,0.01151,0.026424,-0.00012785,0.0078887,-1.6318e-05,0,0,0.048191,-0.020843,0,-8.4856e-05,0,0,0,0.026424,-0.00012786,0.0078887,-0.035214,0.011395,0.023588,4.2098e-07,0.72,0,0
0.038145,0.011771,0.026497,-0.00015156,0.0079036,-5.8241e-05,0,0,0.048342,-0.020943,0,-0.00030285,0,0,0,0.026497,-0.00015169,0.0079036,-0.12522,0.011416,0.023672,4.249e-07,0.76,0,0
0.040084,0.011974,0.026673,-0.0001619,0.0079535,-8.1558e-05,0,0,0.048672,-0.0211,0,-0.0004241,0,0,0,0.026674,-0.00016215,0.0079535,-0.17413,0.011488,0.023838,4.3362e-07,0.8,0,0
0.042038,0.012127,0.026898,-0.00016262,0.0080207,-8.6956e-05,0,0,0.049082,-0.021277,0,-0.00045217,0,0,0,0.026898,-0.0001629,0.0080207,-0.18411,0.011585,0.024038,4.4465e-07,0.84,0,0
0.04401,0.012235,0.027122,-0.00015789,0.0080892,-7.7591e-05,0,0,0.049485,-0.021442,0,-0.00040347,0,0,0,0.027122,-0.00015811,0.0080892,-0.16296,0.011684,0.024233,4.5574e-07,0.88,0,0
0.045997,0.012307,0.027307,-0.00015159,0.0081467,-5.742e-05,0,0,0.049818,-0.021576,0,-0.00029858,0,0,0,0.027307,-0.00015171,0.0081467,-0.11981,0.011768,0.024393,4.65e-07,0.92,0,0
0.047996,0.012347,0.027428,-0.00014663,0.0081845,-3.0365e-05,0,0,0.050034,-0.021661,0,-0.0001579,0,0,0,0.027428,-0.00014667,0.0081845,-0.063094,0.011822,0.024496,4.711e-07,0.96,0,0
0.05,0.01236,0.02747,-0.00014479,0.0081976,6.3124e-05,0,0,0.050109,-0.02169,0,0.00032824,0,0,0,0.02747,-0.00014493,0.0081976,0.13097,0.011841,0.024532,4.7323e-07,1,0,0
0,0,0.03367,0.01443,0.01443,0.010331,0,0,0.050023,4.7705e-18,0,0.053721,0,0,0,0.038166,0.0099334,0.01443,23.521,0.020843,0.026275,8.4038e-07,0,0.04,0
0.0020009,0.0021488,0.030867,0.0033098,0.010253,0.0064741,0,0,0.053597,-0.018053,0,0.033665,0,0,0,0.032313,0.0018647,0.010253,12.583,0.01481,0.02724,7.159e-07,0.04,0.04,0
0.0042878,0.0040965,0.031314,0.0025993,0.010174,0.0038747,0,0,0.054964,-0.019694,0,0.020148,0,0,0,0.031828,0.0020856,0.010174,7.5515,0.014696,0.026635,6.7731e-07,0.08,0.04,0
0.006398,0.0054446,0.02873,0.0014733,0.0090608,0.0019113,0,0,0.051139,-0.019728,0,0.0099387,0,0,0,0.028863,0.0013399,0.0090608,3.9917,0.013088,0.024589,5.1746e-07,0.12,0.04,0
0.0083789,0.0063836,0.027126,0.00093896,0.0084196,0.00084078,0,0,0.048638,-0.01945,0,0.004372,0,0,0,0.027153,0.00091199,0.0084196,1.837,0.012162,0.023409,4.3758e-07,0.16,0.04,0
0.010289,0.0069974,0.026341,0.00063395,0.0080926,0.00014245,0,0,0.047447,-0.019392,0,0.00074074,0,0,0,0.026342,0.00063316,0.0080926,0.31748,0.011689,0.022909,4.04e-07,0.2,0.04,0
0.012175,0.0073653,0.026129,0.00041366,0.0079627,-0.00031616,0,0,0.047232,-0.019628,0,-0.001644,0,0,0,0.026133,0.00040978,0.0079627,-0.7043,0.011502,0.022901,3.9822e-07,0.24,0.04,0
0.014068,0.0075608,0.02628,0.00020537,0.0079456,-0.00058658,0,0,0.047669,-0.020125,0,-0.0030502,0,0,0,0.026293,0.00019218,0.0079456,-1.2881,0.011477,0.023216,4.0938e-07,0.28,0.04,0
0.015988,0.0076591,0.026627,1.1966e-06,0.0079886,-0.00067715,0,0,0.048461,-0.020767,0,-0.0035212,0,0,0,0.026645,-1.6013e-05,0.0079886,-1.4559,0.011539,0.023695,4.2969e-07,0.32,0.04,0
0.017944,0.0077329,0.027032,-0.00016838,0.0080592,-0.00060723,0,0,0.04933,-0.021392,0,-0.0031576,0,0,0,0.027046,-0.00018192,0.0080592,-1.2782,0.011641,0.024184,4.5232e-07,0.36,0.04,0
0.019935,0.0078439,0.027385,-0.00027215,0.0081337,-0.00041873,0,0,0.050052,-0.021855,0,-0.0021774,0,0,0,0.027391,-0.00027849,0.0081337,-0.86721,0.011749,0.024568,4.7155e-07,0.4,0.04,0
0.021949,0.0080332,0.027611,-0.00030051,0.0081931,-0.00017366,0,0,0.050486,-0.022083,0,-0.00090304,0,0,0,0.027612,-0.00030159,0.0081931,-0.35647,0.011834,0.024783,4.8343e-07,0.44,0.04,0
0.023973,0.0083168,0.027685,-0.00025406,0.0082293,6.4706e-05,0,0,0.050585,-0.022057,0,0.00033647,0,0,0,0.027685,-0.00025421,0.0082293,0.1327,0.011887,0.02481,4.8641e-07,0.48,0.04,0
0.025995,0.0086855,0.027627,-0.00014546,0.0082446,0.00023642,0,0,0.050396,-0.021814,0,0.0012294,0,0,0,0.02763,-0.00014748,0.0082446,0.4877,0.011909,0.024675,4.8154e-07,0.52,0.04,0
0.028005,0.0091103,0.027488,-1.4574e-05,0.008242,0.00030691,0,0,0.05004,-0.021467,0,0.0015959,0,0,0,0.027491,-1.7998e-05,0.008242,0.63928,0.011905,0.024449,4.72e-07,0.56,0.04,0
0.029999,0.009553,0.027328,8.9878e-05,0.0082254,0.00027626,0,0,0.049667,-0.021153,0,0.0014365,0,0,0,0.027331,8.7076e-05,0.0082254,0.58103,0.011881,0.024223,4.6188e-07,0.6,0.04,0
0.031978,0.0099772,0.027204,0.00014163,0.0082036,0.00017848,0,0,0.0494,-0.020961,0,0.0009281,0,0,0,0.027205,0.00014045,0.0082036,0.37786,0.01185,0.024068,4.5454e-07,0.64,0.04,0
0.033951,0.010356,0.027151,0.000145,0.0081887,5.5607e-05,0,0,0.049301,-0.020914,0,0.00028916,0,0,0,0.027151,0.00014488,0.0081887,0.11798,0.011828,0.024016,4.5174e-07,0.68,0.04,0
0.035923,0.010676,0.027177,0.00011609,0.008188,-5.6995e-05,0,0,0.049372,-0.020987,0,-0.00029637,0,0,0,0.027177,0.00011597,0.008188,-0.12067,0.011827,0.024063,4.536e-07,0.72,0.04,0
0.0379,0.010933,0.027273,7.3021e-05,0.0082037,-0.00013922,0,0,0.049579,-0.02114,0,-0.00072395,0,0,0,0.027273,7.2309e-05,0.0082037,-0.29326,0.01185,0.024183,4.5922e-07,0.76,0.04,0
0.039889,0.01113,0.027413,2.8033e-05,0.0082324,-0.0001835,0,0,0.04987,-0.021331,0,-0.00095422,0,0,0,0.027415,2.6804e-05,0.0082324,-0.38391,0.011891,0.024345,4.6724e-07,0.8,0.04,0
0.04189,0.011276,0.027572,-1.1141e-05,0.0082683,-0.00019133,0,0,0.05019,-0.021527,0,-0.0009949,0,0,0,0.027574,-1.2468e-05,0.0082683,-0.39739,0.011943,0.024518,4.7614e-07,0.84,0.04,0
0.043904,0.011377,0.027724,-4.1274e-05,0.0083048,-0.00016895,0,0,0.05049,-0.0217,0,-0.00087853,0,0,0,0.027725,-4.2302e-05,0.0083048,-0.34862,0.011996,0.024676,4.8458e-07,0.88,0.04,0
0.045929,0.011444,0.027847,-6.1865e-05,0.0083356,-0.00012439,0,0,0.05073,-0.021833,0,-0.00064681,0,0,0,0.027848,-6.242e-05,0.0083356,-0.25535,0.01204,0.024802,4.9143e-07,0.92,0.04,0
0.047962,0.011481,0.027927,-7.3651e-05,0.0083561,-6.5621e-05,0,0,0.050885,-0.021917,0,-0.00034123,0,0,0,0.027927,-7.3804e-05,0.0083561,-0.13427,0.01207,0.024881,4.9587e-07,0.96,0.04,0
0.05,0.011493,0.027955,-7.7466e-05,0.0083632,5.7485e-05,0,0,0.050938,-0.021946,0,0.00029892,0,0,0,0.027955,-7.7584e-05,0.0083632,0.11749,0.01208,0.024909,4.9741e-07,1,0.04,0
0,0,0.030303,0.012987,0.012987,0.0082785,0,0,0.045022,-1.301e-18,0,0.043048,0,0,0,0.033624,0.0096663,0.012987,21.858,0.018759,0.022482,5.4095e-07,0,0.08,0
0.0018009,0.0017219,0.029266,0.0078766,0.011143,0.0074084,0,0,0.04712,-0.0084919,0,0.038524,0,0,0,0.031581,0.0055613,0.011143,17.356,0.016095,0.023727,5.6014e-07,0.04,0.08,0
0.0037696,0.0033573,0.029433,0.0040421,0.010042,0.0054066,0,0,0.050415,-0.015601,0,0.028114,0,0,0,0.030536,0.0029388,0.010042,11.534,0.014506,0.02482,5.7384e-07,0.08,0.08,0
0.0058341,0.0046675,0.029303,0.0026794,0.0095947,0.0033651,0,0,0.051241,-0.01798,0,0.017498,0,0,0,0.029722,0.0022607,0.0095947,7.0933,0.013859,0.024627,5.4397e-07,0.12,0.08,0
0.0078689,0.0055976,0.02844,0.0018367,0.009083,0.0017534,0,0,0.050328,-0.01884,0,0.0091179,0,0,0,0.028555,0.0017216,0.009083,3.7548,0.01312,0.024015,4.9245e-07,0.16,0.08,0
0.0098604,0.0062105,0.027706,0.0013144,0.008706,0.000601,0,0,0.049399,-0.019218,0,0.0031252,0,0,0,0.027719,0.0013008,0.008706,1.3039,0.012575,0.023604,4.5808e-07,0.2,0.08,0
0.011821,0.0065702,0.027228,0.00089598,0.0084372,-0.0002174,0,0,0.048856,-0.019607,0,-0.0011305,0,0,0,0.02723,0.00089419,0.0084372,-0.473,0.012187,0.023491,4.4168e-07,0.24,0.08,0
0.013769,0.0067482,0.026995,0.00047743,0.0082417,-0.00073075,0,0,0.048758,-0.020187,0,-0.0037999,0,0,0,0.027015,0.00045731,0.0082417,-1.5773,0.011905,0.023647,4.3931e-07,0.28,0.08,0
0.015721,0.006823,0.026935,4.7577e-05,0.0080949,-0.00094653,0,0,0.048985,-0.020923,0,-0.004922,0,0,0,0.026969,1.4297e-05,0.0080949,-2.0137,0.011693,0.023959,4.4502e-07,0.32,0.08,0
0.017688,0.0068738,0.026985,-0.00030128,0.0080052,-0.00088702,0,0,0.049348,-0.021597,0,-0.0046125,0,0,0,0.027014,-0.00033009,0.0080052,-1.8599,0.011563,0.024275,4.5331e-07,0.36,0.08,0
0.019669,0.0069682,0.027083,-0.00050235,0.0079743,-0.0006405,0,0,0.049683,-0.022039,0,-0.0033306,0,0,0,0.027098,-0.00051721,0.0079743,-1.3294,0.011518,0.024499,4.6078e-07,0.4,0.08,0
0.021662,0.00715,0.027176,-0.00056692,0.0079827,-0.00029645,0,0,0.049902,-0.022229,0,-0.0015416,0,0,0,0.027179,-0.00057009,0.0079827,-0.61216,0.011531,0.024614,4.6581e-07,0.44,0.08,0
0.023661,0.0074358,0.02724,-0.00049582,0.0080232,4.825e-05,0,0,0.049963,-0.022149,0,0.0002509,0,0,0,0.02724,-0.00049591,0.0080232,0.099675,0.011589,0.024608,4.6763e-07,0.48,0.08,0
0.025659,0.0078152,0.027282,-0.00028261,0.0080998,0.00030711,0,0,0.049874,-0.021794,0,0.001597,0,0,0,0.027286,-0.00028603,0.0080998,0.63826,0.0117,0.024481,4.6628e-07,0.52,0.08,0
0.027651,0.0082544,0.027316,-1.0125e-05,0.0081918,0.00040294,0,0,0.049723,-0.021325,0,0.0020953,0,0,0,0.027322,-1.6065e-05,0.0081918,0.84461,0.011833,0.024297,4.6331e-07,0.56,0.08,0
0.029637,0.0087089,0.027358,0.00019569,0.0082661,0.00034253,0,0,0.049639,-0.020983,0,0.0017812,0,0,0,0.027362,0.00019137,0.0082661,0.72238,0.01194,0.024167,4.6155e-07,0.6,0.08,0
0.031623,0.0091385,0.027434,0.00028954,0.008317,0.00017965,0,0,0.049704,-0.020872,0,0.00093416,0,0,0,0.027435,0.00028836,0.008317,0.37917,0.012013,0.024155,4.6344e-07,0.64,0.08,0
0.033614,0.0095167,0.027549,0.00028441,0.00835,-1.1217e-05,0,0,0.049917,-0.020971,0,-5.833e-05,0,0,0,0.027549,0.00028441,0.00835,-0.023573,0.012061,0.024259,4.6933e-07,0.68,0.08,0
0.035616,0.0098309,0.027699,0.00022275,0.0083765,-0.00018082,0,0,0.050238,-0.0212,0,-0.00094026,0,0,0,0.0277,0.00022156,0.0083765,-0.37704,0.012099,0.024444,4.7833e-07,0.72,0.08,0
0.037633,0.01008,0.027866,0.00013342,0.0083997,-0.00029909,0,0,0.050611,-0.021492,0,-0.0015553,0,0,0,0.027869,0.00013019,0.0083997,-0.61784,0.012133,0.024666,4.8889e-07,0.76,0.08,0
0.039665,0.010268,0.028035,4.247e-05,0.0084231,-0.00035615,0,0,0.05099,-0.02179,0,-0.001852,0,0,0,0.028039,3.7939e-05,0.0084231,-0.72884,0.012167,0.024891,4.997e-07,0.8,0.08,0
0.041712,0.010405,0.028192,-3.5759e-05,0.0084468,-0.00035509,0,0,0.051337,-0.022055,0,-0.0018464,0,0,0,0.028196,-4.0225e-05,0.0084468,-0.7206,0.012201,0.025094,5.0967e-07,0.84,0.08,0
0.043772,0.010499,0.028325,-9.5331e-05,0.008469,-0.00030635,0,0,0.051627,-0.022267,0,-0.001593,0,0,0,0.028329,-9.8633e-05,0.008469,-0.6175,0.012233,0.025258,5.1802e-07,0.88,0.08,0
0.045842,0.01056,0.028427,-0.00013584,0.0084873,-0.00022272,0,0,0.051843,-0.02242,0,-0.0011581,0,0,0,0.028428,-0.00013758,0.0084873,-0.44673,0.012259,0.025378,5.2426e-07,0.92,0.08,0
0.047919,0.010594,0.02849,-0.00015899,0.0084992,-0.00011676,0,0,0.051975,-0.022511,0,-0.00060714,0,0,0,0.02849,-0.00015947,0.0084992,-0.2335,0.012277,0.02545,5.281e-07,0.96,0.08,0
0.05,0.010605,0.028511,-0.00016648,0.0085034,5.2161e-05,0,0,0.05202,-0.022542,0,0.00027124,0,0,0,0.028511,-0.00016658,0.0085034,0.10421,0.012283,0.025474,5.2941e-07,1,0.08,0
0,0,0.029035,0.012443,0.012443,0.0070649,0,0,0.043137,2.1684e-19,0,0.036737,0,0,0,0.031635,0.0098427,0.012443,20.21,0.017974,0.020616,4.2596e-07,0,0.12,0
0.0017255,0.0014695,0.028641,0.0092749,0.011375,0.0066445,0,0,0.044892,-0.0054597,0,0.034551,0,0,0,0.030702,0.0072144,0.011375,17.229,0.01643,0.021708,4.6102e-07,0.04,0.12,0
0.0035914,0.0028485,0.029027,0.0063158,0.010603,0.0055588,0,0,0.047902,-0.011146,0,0.028906,0,0,0,0.030314,0.0050282,0.010603,13.042,0.015315,0.023011,5.0413e-07,0.08,0.12,0
0.0055576,0.0040063,0.029116,0.0042543,0.010011,0.0039955,0,0,0.049673,-0.014968,0,0.020777,0,0,0,0.029742,0.0036279,0.010011,8.9093,0.01446,0.02358,5.1069e-07,0.12,0.12,0
0.0075652,0.0048764,0.028853,0.0030787,0.0095794,0.0024759,0,0,0.050111,-0.016902,0,0.012875,0,0,0,0.029088,0.002843,0.0095794,5.4378,0.013837,0.023609,4.9497e-07,0.16,0.12,0
0.0095665,0.0054599,0.028315,0.0022668,0.0091746,0.0011938,0,0,0.049765,-0.01796,0,0.0062078,0,0,0,0.02837,0.0022121,0.0091746,2.6186,0.013252,0.023464,4.7186e-07,0.2,0.12,0
0.011546,0.0057967,0.027785,0.0016206,0.0088217,0.00020135,0,0,0.049305,-0.018723,0,0.001047,0,0,0,0.027787,0.001619,0.0088217,0.44089,0.012743,0.023413,4.5493e-07,0.24,0.12,0
0.013511,0.0059458,0.027331,0.00091433,0.0084736,-0.00050102,0,0,0.049029,-0.019654,0,-0.0026053,0,0,0,0.027341,0.00090484,0.0084736,-1.0861,0.01224,0.023581,4.4695e-07,0.28,0.12,0
0.015469,0.0059852,0.026979,0.00014133,0.0081361,-0.00082975,0,0,0.048992,-0.020786,0,-0.0043147,0,0,0,0.027005,0.0001157,0.0081361,-1.7692,0.011752,0.02391,4.45e-07,0.32,0.12,0
0.01743,0.0060052,0.026752,-0.00044844,0.0078912,-0.00084723,0,0,0.049039,-0.021683,0,-0.0044056,0,0,0,0.026779,-0.0004748,0.0078912,-1.7823,0.011398,0.024182,4.4408e-07,0.36,0.12,0
0.019392,0.0060808,0.026665,-0.00072188,0.0077831,-0.00065902,0,0,0.049094,-0.022113,0,-0.0034269,0,0,0,0.026681,-0.00073773,0.0077831,-1.3776,0.011242,0.024306,4.4361e-07,0.4,0.12,0
0.021358,0.0062549,0.026673,-0.00084431,0.0077486,-0.00040092,0,0,0.049203,-0.022342,0,-0.0020848,0,0,0,0.026679,-0.00085015,0.0077486,-0.83454,0.011192,0.024394,4.4532e-07,0.44,0.12,0
0.023328,0.0065448,0.026757,-0.00081663,0.0077821,-7.2784e-05,0,0,0.049335,-0.022357,0,-0.00037848,0,0,0,0.026757,-0.00081682,0.0077821,-0.15124,0.011241,0.024437,4.4867e-07,0.48,0.12,0
0.025305,0.0069419,0.02693,-0.00047756,0.0079357,0.00018995,0,0,0.049385,-0.021874,0,0.00098773,0,0,0,0.026931,-0.00047888,0.0079357,0.39706,0.011463,0.02432,4.5172e-07,0.52,0.12,0
0.027279,0.0074043,0.027154,1.6463e-05,0.008151,0.00028693,0,0,0.049407,-0.02115,0,0.001492,0,0,0,0.027157,1.3429e-05,0.008151,0.60572,0.011774,0.024127,4.544e-07,0.56,0.12,0
0.029257,0.0078744,0.027396,0.00036056,0.0083269,0.00017687,0,0,0.049579,-0.020712,0,0.00091974,0,0,0,0.027397,0.00035941,0.0083269,0.37483,0.012028,0.024064,4.6017e-07,0.6,0.12,0
0.031245,0.0083074,0.027653,0.00047864,0.0084396,-1.3465e-05,0,0,0.049956,-0.020698,0,-7.0018e-05,0,0,0,0.027653,0.00047864,0.0084396,-0.02839,0.01219,0.024197,4.7099e-07,0.64,0.12,0
0.033253,0.0086787,0.027943,0.00046989,0.0085238,-0.00022416,0,0,0.050489,-0.02094,0,-0.0011657,0,0,0,0.027945,0.00046806,0.0085238,-0.46746,0.012312,0.024465,4.8634e-07,0.68,0.12,0
0.035284,0.0089802,0.028213,0.00035524,0.0085703,-0.00039702,0,0,0.05107,-0.021359,0,-0.0020645,0,0,0,0.028218,0.00034958,0.0085703,-0.81635,0.012379,0.024802,5.0322e-07,0.72,0.12,0
0.037339,0.0092136,0.02846,0.00019925,0.0085977,-0.00050494,0,0,0.051641,-0.021836,0,-0.0026257,0,0,0,0.028469,0.00019023,0.0085977,-1.0233,0.012419,0.025152,5.2e-07,0.76,0.12,0
0.039416,0.0093872,0.028672,4.329e-05,0.0086146,-0.00053904,0,0,0.052149,-0.022285,0,-0.002803,0,0,0,0.028682,3.3144e-05,0.0086146,-1.0783,0.012443,0.025467,5.3498e-07,0.8,0.12,0
0.041511,0.0095112,0.028845,-8.7849e-05,0.0086271,-0.00050702,0,0,0.052566,-0.022659,0,-0.0026365,0,0,0,0.028854,-9.6731e-05,0.0086271,-1.0036,0.012461,0.025723,5.4727e-07,0.84,0.12,0
0.043621,0.009596,0.028976,-0.00018651,0.008637,-0.0004228,0,0,0.052883,-0.022941,0,-0.0021986,0,0,0,0.028983,-0.00019263,0.008637,-0.83043,0.012476,0.025914,5.5658e-07,0.88,0.12,0
0.045742,0.0096501,0.029068,-0.00025321,0.0086445,-0.00030134,0,0,0.053102,-0.023134,0,-0.0015669,0,0,0,0.029071,-0.00025631,0.0086445,-0.58875,0.012486,0.026044,5.6298e-07,0.92,0.12,0
0.047869,0.0096801,0.029122,-0.00029124,0.0086493,-0.00015633,0,0,0.05323,-0.023245,0,-0.00081292,0,0,0,0.029123,-0.00029207,0.0086493,-0.30451,0.012493,0.026119,5.6671e-07,0.96,0.12,0
0.05,0.0096896,0.02914,-0.00030354,0.0086509,4.5833e-05,0,0,0.053272,-0.023282,0,0.00023833,0,0,0,0.02914,-0.00030362,0.0086509,0.089188,0.012496,0.026143,5.6793e-07,1,0.12,0
0,0,0.028884,0.012379,0.012379,0.0061786,0,0,0.042914,2.1684e-19,0,0.032129,0,0,0,0.030941,0.010322,0.012379,18.411,0.017881,0.019671,3.7657e-07,0,0.16,0
0.0017166,0.0012852,0.028611,0.0099422,0.011566,0.0059617,0,0,0.044316,-0.0042215,0,0.031001,0,0,0,0.030352,0.0082007,0.011566,16.283,0.016706,0.020675,4.1366e-07,0.04,0.16,0
0.0035453,0.0024657,0.029046,0.0076495,0.011009,0.0052233,0,0,0.046897,-0.0087339,0,0.027161,0,0,0,0.030253,0.0064424,0.011009,13.012,0.015901,0.021888,4.6053e-07,0.08,0.16,0
0.0054683,0.0034701,0.029243,0.0057359,0.010494,0.0041481,0,0,0.048749,-0.01237,0,0.02157,0,0,0,0.029954,0.0050253,0.010494,9.7196,0.015158,0.022694,4.848e-07,0.12,0.16,0
0.0074452,0.0042455,0.029116,0.0043429,0.010038,0.002933,0,0,0.049604,-0.014806,0,0.015251,0,0,0,0.029458,0.0040004,0.010038,6.6608,0.014499,0.02304,4.858e-07,0.16,0.16,0
0.0094366,0.0047737,0.028714,0.0033208,0.0096104,0.0017897,0,0,0.049669,-0.016353,0,0.0093066,0,0,0,0.028839,0.0031953,0.0096104,4.0119,0.013882,0.023114,4.7339e-07,0.2,0.16,0
0.011419,0.0050724,0.028038,0.0023554,0.0091179,0.00081044,0,0,0.049191,-0.017583,0,0.0042143,0,0,0,0.028063,0.0023299,0.0091179,1.8057,0.01317,0.0231,4.5362e-07,0.24,0.16,0
0.013372,0.0051759,0.027428,0.0015266,0.0086864,0.00010804,0,0,0.048728,-0.018616,0,0.00056182,0,0,0,0.027428,0.0015261,0.0086864,0.23899,0.012547,0.023167,4.3901e-07,0.28,0.16,0
0.015317,0.00516,0.026684,0.0002798,0.0080892,-0.00037126,0,0,0.048347,-0.020304,0,-0.0019305,0,0,0,0.02669,0.00027458,0.0080892,-0.80539,0.011684,0.023503,4.2678e-07,0.32,0.16,0
0.01724,0.0051392,0.026035,-0.00060663,0.0076285,-0.00039091,0,0,0.047857,-0.021411,0,-0.0020327,0,0,0,0.026041,-0.00061236,0.0076285,-0.84046,0.011019,0.023636,4.1074e-07,0.36,0.16,0
0.019145,0.0051992,0.025791,-0.00058712,0.0075612,-0.0004764,0,0,0.047398,-0.021186,0,-0.0024773,0,0,0,0.0258,-0.00059572,0.0075612,-1.0343,0.010922,0.023408,3.9927e-07,0.4,0.16,0
0.021032,0.0053626,0.025755,-0.00078218,0.0074918,-0.00056988,0,0,0.047484,-0.021512,0,-0.0029634,0,0,0,0.025767,-0.00079441,0.0074918,-1.2297,0.010821,0.023539,4.008e-07,0.44,0.16,0
0.022944,0.0056473,0.025909,-0.0012021,0.0074121,-0.00048594,0,0,0.048092,-0.022397,0,-0.0025269,0,0,0,0.025918,-0.0012108,0.0074121,-1.0265,0.010706,0.024008,4.1406e-07,0.48,0.16,0
0.024879,0.0060653,0.026439,-0.00071407,0.0077176,-0.00016785,0,0,0.048677,-0.021922,0,-0.00087284,0,0,0,0.02644,-0.00071511,0.0077176,-0.35417,0.011148,0.024074,4.3145e-07,0.52,0.16,0
0.026838,0.0065625,0.027036,0.0001207,0.0081469,-0.00015509,0,0,0.04911,-0.020868,0,-0.00080645,0,0,0,0.027036,0.00011981,0.0081469,-0.33013,0.011768,0.023935,4.4649e-07,0.56,0.16,0
0.028808,0.0070519,0.027481,0.00043168,0.0083738,-0.00021435,0,0,0.049679,-0.02065,0,-0.0011146,0,0,0,0.027483,0.00042998,0.0083738,-0.454,0.012096,0.024084,4.6319e-07,0.6,0.16,0
0.030813,0.0074826,0.028037,0.00067777,0.0086143,-0.00038679,0,0,0.050498,-0.020635,0,-0.0020113,0,0,0,0.028042,0.0006723,0.0086143,-0.80981,0.012443,0.024389,4.8742e-07,0.64,0.16,0
0.032848,0.0078415,0.028457,0.00064364,0.0087302,-0.00056125,0,0,0.05129,-0.021025,0,-0.0029185,0,0,0,0.028468,0.00063232,0.0087302,-1.1556,0.01261,0.024799,5.1101e-07,0.68,0.16,0
0.034916,0.0081222,0.028827,0.0004678,0.0087885,-0.00069828,0,0,0.052101,-0.021634,0,-0.003631,0,0,0,0.028844,0.00045061,0.0087885,-1.4096,0.012694,0.025278,5.3553e-07,0.72,0.16,0
0.037016,0.0083327,0.029131,0.00022939,0.0088082,-0.00075608,0,0,0.05284,-0.022305,0,-0.0039316,0,0,0,0.029151,0.00020962,0.0088082,-1.4975,0.012723,0.025743,5.5798e-07,0.76,0.16,0
0.039143,0.008485,0.029373,4.407e-06,0.0088132,-0.00073605,0,0,0.053456,-0.022903,0,-0.0038275,0,0,0,0.029392,-1.4029e-05,0.0088132,-1.4348,0.01273,0.026135,5.7668e-07,0.8,0.16,0
0.041292,0.0085918,0.029552,-0.00017928,0.0088118,-0.00065311,0,0,0.053924,-0.023377,0,-0.0033962,0,0,0,0.029566,-0.00019362,0.0088118,-1.2578,0.012728,0.026434,5.9082e-07,0.84,0.16,0
0.043457,0.0086638,0.029676,-0.00031543,0.0088081,-0.00052468,0,0,0.054256,-0.023721,0,-0.0027283,0,0,0,0.029685,-0.0003246,0.0088081,-1.0019,0.012723,0.026644,6.0071e-07,0.88,0.16,0
0.045633,0.0087094,0.029755,-0.00040683,0.0088046,-0.00036541,0,0,0.054472,-0.02395,0,-0.0019001,0,0,0,0.02976,-0.00041126,0.0088046,-0.69399,0.012718,0.02678,6.0707e-07,0.92,0.16,0
0.047815,0.0087344,0.029799,-0.0004588,0.0088022,-0.0001872,0,0,0.054593,-0.024079,0,-0.00097344,0,0,0,0.029801,-0.00045996,0.0088022,-0.35446,0.012714,0.026856,6.1059e-07,0.96,0.16,0
0.05,0.0087423,0.029814,-0.00047559,0.0088014,3.8211e-05,0,0,0.054632,-0.02412,0,0.0001987,0,0,0,0.029814,-0.00047564,0.0088014,0.07228,0.012713,0.02688,6.1171e-07,1,0.16,0
0,0,0.029277,0.012547,0.012547,0.0054412,0,0,0.043497,0,0,0.028295,0,0,0,0.030891,0.010933,0.012547,16.522,0.018124,0.019201,3.5496e-07,0,0.2,0
0.0017399,0.0011318,0.029042,0.010401,0.011833,0.0053297,0,0,0.044742,-0.0037219,0,0.027714,0,0,0,0.030458,0.008985,0.011833,14.882,0.017092,0.0202,3.9511e-07,0.04,0.2,0
0.0035794,0.0021497,0.029483,0.0084797,0.011389,0.0048224,0,0,0.047045,-0.0075638,0,0.025076,0,0,0,0.030537,0.0074254,0.011389,12.332,0.016451,0.021407,4.462e-07,0.08,0.2,0
0.0055035,0.0030166,0.029708,0.0067817,0.010947,0.0041015,0,0,0.048778,-0.010829,0,0.021328,0,0,0,0.030419,0.00607,0.010947,9.8437,0.015812,0.022314,4.8004e-07,0.12,0.2,0
0.0074817,0.0036919,0.029673,0.0054437,0.010535,0.0032292,0,0,0.049758,-0.013237,0,0.016792,0,0,0,0.030096,0.0050207,0.010535,7.4627,0.015217,0.022823,4.925e-07,0.16,0.2,0
0.0094841,0.0041517,0.029293,0.0042522,0.010064,0.0023116,0,0,0.049997,-0.01511,0,0.01202,0,0,0,0.029505,0.0040406,0.010064,5.2303,0.014536,0.023051,4.8721e-07,0.2,0.2,0
0.011481,0.0043901,0.028706,0.0031329,0.0095516,0.0015902,0,0,0.049801,-0.016689,0,0.008269,0,0,0,0.028804,0.0030344,0.0095516,3.5446,0.013797,0.023208,4.7541e-07,0.24,0.2,0
0.013468,0.0044566,0.027207,0.0014684,0.0086026,0.0010269,0,0,0.048371,-0.018549,0,0.00534,0,0,0,0.027248,0.0014275,0.0086026,2.2811,0.012426,0.023085,4.3216e-07,0.28,0.2,0
0.015351,0.0043609,0.025958,0.00030859,0.0078801,0.001282,0,0,0.047003,-0.019686,0,0.0066664,0,0,0,0.026022,0.00024468,0.0078801,2.8542,0.011382,0.022934,3.9595e-07,0.32,0.2,0
0.017229,0.0042923,0.024918,0.00014236,0.0075181,0.00054295,0,0,0.04524,-0.019177,0,0.0028234,0,0,0,0.02493,0.00013047,0.0075181,1.2548,0.010859,0.022054,3.4975e-07,0.36,0.2,0
0.01897,0.0043859,0.023649,-1.453e-05,0.0070902,-9.0387e-05,0,0,0.043052,-0.018472,0,-0.00047002,0,0,0,0.023649,-1.4876e-05,0.0070902,-0.21885,0.010242,0.021032,3.0045e-07,0.4,0.2,0
0.020673,0.0045339,0.023598,-0.00027655,0.0069965,-0.00086549,0,0,0.043164,-0.01891,0,-0.0045005,0,0,0,0.023629,-0.00030788,0.0069965,-2.0734,0.010106,0.021249,3.0364e-07,0.44,0.2,0
0.022423,0.0047531,0.024744,-0.00070821,0.0072106,-0.0013218,0,0,0.045586,-0.020589,0,-0.0068736,0,0,0,0.024812,-0.00077667,0.0072106,-2.965,0.010415,0.022676,3.5803e-07,0.48,0.2,0
0.02432,0.0051881,0.025646,-0.0011285,0.0073552,-0.0016925,0,0,0.047555,-0.022057,0,-0.0088008,0,0,0,0.025752,-0.001235,0.0073552,-3.6027,0.010624,0.02388,4.0664e-07,0.52,0.2,0
0.026228,0.0057349,0.026766,-0.00049889,0.0078801,-0.00091304,0,0,0.049103,-0.021785,0,-0.0047478,0,0,0,0.026797,-0.00052943,0.0078801,-1.9159,0.011382,0.024241,4.4587e-07,0.56,0.2,0
0.028248,0.0062224,0.028158,0.00052595,0.0086051,-0.00084277,0,0,0.050837,-0.021006,0,-0.0043824,0,0,0,0.028183,0.00050027,0.0086051,-1.7454,0.012429,0.024651,4.9834e-07,0.6,0.2,0
0.030295,0.0066566,0.028731,0.00081026,0.0088624,-0.00084901,0,0,0.051659,-0.020936,0,-0.0044148,0,0,0,0.028757,0.00078447,0.0088624,-1.7401,0.012801,0.024935,5.2364e-07,0.64,0.2,0
0.03238,0.0069967,0.029244,0.00080077,0.0090136,-0.00097942,0,0,0.0526,-0.021353,0,-0.005093,0,0,0,0.029278,0.00076709,0.0090136,-1.9698,0.01302,0.025412,5.5332e-07,0.68,0.2,0
0.034503,0.0072495,0.029625,0.00051314,0.0090413,-0.0010443,0,0,0.053517,-0.022173,0,-0.0054302,0,0,0,0.029662,0.00047573,0.0090413,-2.0518,0.01306,0.025985,5.821e-07,0.72,0.2,0
0.036662,0.0074292,0.029942,0.00019088,0.0090398,-0.00102,0,0,0.054345,-0.023007,0,-0.0053039,0,0,0,0.029977,0.00015595,0.0090398,-1.9612,0.013057,0.026519,6.0808e-07,0.76,0.2,0
0.03885,0.0075549,0.030171,-9.2678e-05,0.0090236,-0.00092202,0,0,0.054984,-0.023702,0,-0.0047945,0,0,0,0.030199,-0.00012074,0.0090236,-1.7434,0.013034,0.026938,6.279e-07,0.8,0.2,0
0.04106,0.0076411,0.030322,-0.00031708,0.0090016,-0.00077704,0,0,0.055434,-0.024229,0,-0.0040406,0,0,0,0.030342,-0.00033677,0.0090016,-1.4518,0.013002,0.027238,6.4161e-07,0.84,0.2,0
0.043285,0.0076983,0.030416,-0.00048058,0.0089806,-0.00060272,0,0,0.055732,-0.024599,0,-0.0031341,0,0,0,0.030428,-0.00049234,0.0089806,-1.1171,0.012972,0.027439,6.5043e-07,0.88,0.2,0
0.045519,0.0077342,0.03047,-0.00058942,0.0089641,-0.00041037,0,0,0.055914,-0.024839,0,-0.0021339,0,0,0,0.030475,-0.00059484,0.0089641,-0.75685,0.012948,0.027563,6.5569e-07,0.92,0.2,0
0.047758,0.0077538,0.030497,-0.00065106,0.0089537,-0.00020759,0,0,0.056012,-0.024972,0,-0.0010795,0,0,0,0.030498,-0.00065244,0.0089537,-0.38183,0.012933,0.02763,6.5842e-07,0.96,0.2,0
0.05,0.00776,0.030505,-0.00067096,0.0089502,2.9853e-05,0,0,0.056042,-0.025015,0,0.00015523,0,0,0,0.030505,-0.00067099,0.0089502,0.054864,0.012928,0.027651,6.5926e-07,1,0.2,0
0,0,0.030019,0.012865,0.012865,0.0047471,0,0,0.044599,6.5052e-19,0,0.024685,0,0,0,0.031245,0.011639,0.012865,14.482,0.018583,0.019022,3.4857e-07,0,0.24,0
0.001784,0.00098739,0.029785,0.010739,0.012157,0.0047106,0,0,0.045832,-0.0036866,0,0.024495,0,0,0,0.030886,0.009638,0.012157,13.16,0.017561,0.020108,3.9553e-07,0.04,0.24,0
0.0036666,0.0018606,0.030285,0.0089901,0.011782,0.0043791,0,0,0.048106,-0.00726,0,0.022771,0,0,0,0.03115,0.0081247,0.011782,11.178,0.017019,0.021432,4.5635e-07,0.08,0.24,0
0.0056324,0.0026037,0.030575,0.0074491,0.011407,0.003955,0,0,0.049836,-0.010291,0,0.020566,0,0,0,0.031233,0.0067914,0.011407,9.4415,0.016477,0.022491,5.0239e-07,0.12,0.24,0
0.0076534,0.0031865,0.0306,0.0062155,0.011045,0.0033906,0,0,0.050844,-0.012556,0,0.017631,0,0,0,0.031063,0.0057528,0.011045,7.7705,0.015953,0.023123,5.2457e-07,0.16,0.24,0
0.0097,0.0035649,0.030545,0.0052165,0.010729,0.0027445,0,0,0.051524,-0.014332,0,0.014271,0,0,0,0.030839,0.0049225,0.010729,6.1137,0.015497,0.023557,5.3638e-07,0.2,0.24,0
0.011775,0.0037373,0.029832,0.0034476,0.0099839,0.0021075,0,0,0.051605,-0.016994,0,0.010959,0,0,0,0.029999,0.0032803,0.0099839,4.5384,0.014421,0.024078,5.3396e-07,0.24,0.24,0
0.013828,0.003692,0.030023,0.0021174,0.0096421,0.0023318,0,0,0.052991,-0.019564,0,0.012126,0,0,0,0.030217,0.0019239,0.0096421,4.7439,0.013928,0.025331,5.8098e-07,0.28,0.24,0
0.016015,0.0035852,0.033158,0.0006925,0.010155,0.0020116,0,0,0.041984,-0.016829,0,0.0079655,0,0,0,0.033291,0.00055979,0.010155,3.7299,0.014669,0.029147,9.0751e-07,0.32,0.24,0
0.017441,0.003605,0.029678,0.00069712,0.0091124,0.0010331,0,0,0.035646,-0.015236,0,0.0044369,0,0,0,0.029729,0.0006458,0.0091124,2.4351,0.013162,0.02592,7.7377e-07,0.36,0.24,0
0.018866,0.0037214,0.02973,0.00052904,0.0090778,9.5487e-05,0,0,0.035798,-0.015267,0,0.00036359,0,0,0,0.029731,0.00052871,0.0090778,0.20267,0.013112,0.026009,7.8118e-07,0.4,0.24,0
0.020304,0.0038498,0.029692,0.00019901,0.0089672,-0.00093067,0,0,0.035922,-0.015674,0,-0.0038505,0,0,0,0.029729,0.0001619,0.0089672,-2.1045,0.012953,0.0263,7.9041e-07,0.44,0.24,0
0.02174,0.0040001,0.029634,-0.00029348,0.0088021,-0.0016632,0,0,0.036109,-0.01653,0,-0.0071861,0,0,0,0.029764,-0.00042328,0.0088021,-3.7741,0.012714,0.026808,8.0467e-07,0.48,0.24,0
0.023193,0.0043007,0.032835,-0.0015527,0.0093846,-0.0022528,0,0,0.042809,-0.019419,0,-0.0088639,0,0,0,0.032991,-0.0017086,0.0093846,-3.9307,0.013555,0.0307,9.4212e-07,0.52,0.24,0
0.025424,0.0048196,0.029624,-0.00046671,0.0087472,-0.0020547,0,0,0.05428,-0.023956,0,-0.010685,0,0,0,0.029764,-0.00060637,0.0087472,-3.8883,0.012635,0.02694,6.1137e-07,0.56,0.24,0
0.027535,0.0053714,0.029368,0.00024136,0.0088828,-0.0012717,0,0,0.053262,-0.022468,0,-0.0066128,0,0,0,0.029424,0.00018594,0.0088828,-2.4952,0.012831,0.026004,5.7433e-07,0.6,0.24,0
0.029685,0.0058078,0.030089,0.0011059,0.0093584,-0.0013165,0,0,0.053899,-0.021456,0,-0.0068458,0,0,0,0.030148,0.0010463,0.0093584,-2.5955,0.013518,0.025964,5.9814e-07,0.64,0.24,0
0.031847,0.0061332,0.03034,0.0008643,0.0093614,-0.0013844,0,0,0.054545,-0.022093,0,-0.0071987,0,0,0,0.030405,0.00079942,0.0093614,-2.6831,0.013522,0.026388,6.1966e-07,0.68,0.24,0
0.034049,0.0063483,0.030679,0.00045395,0.00934,-0.0013614,0,0,0.055482,-0.023104,0,-0.0070794,0,0,0,0.030741,0.00039275,0.00934,-2.5738,0.013491,0.027009,6.503e-07,0.72,0.24,0
0.036286,0.0064921,0.030929,7.0887e-05,0.0092999,-0.0012296,0,0,0.056235,-0.023995,0,-0.0063941,0,0,0,0.030978,2.1964e-05,0.0092999,-2.2784,0.013433,0.027516,6.7431e-07,0.76,0.24,0
0.038548,0.0065888,0.031071,-0.00025067,0.009246,-0.0010489,0,0,0.056744,-0.024692,0,-0.0054545,0,0,0,0.031106,-0.00028576,0.009246,-1.916,0.013355,0.027876,6.8991e-07,0.8,0.24,0
0.040825,0.0066535,0.031143,-0.00049704,0.0091939,-0.00084758,0,0,0.057068,-0.025196,0,-0.0044074,0,0,0,0.031166,-0.00051973,0.0091939,-1.5334,0.01328,0.028117,6.9929e-07,0.84,0.24,0
0.043113,0.0066959,0.031174,-0.00067332,0.0091502,-0.00063814,0,0,0.057262,-0.025541,0,-0.0033183,0,0,0,0.031187,-0.0006861,0.0091502,-1.1475,0.013217,0.028269,7.0446e-07,0.88,0.24,0
0.045406,0.0067223,0.031183,-0.00078949,0.009118,-0.00042597,0,0,0.057369,-0.02576,0,-0.0022151,0,0,0,0.031189,-0.00079516,0.009118,-0.76318,0.01317,0.028358,7.0704e-07,0.92,0.24,0
0.047703,0.0067366,0.031183,-0.00085497,0.0090985,-0.00021306,0,0,0.05742,-0.025879,0,-0.0011079,0,0,0,0.031185,-0.00085638,0.0090985,-0.381,0.013142,0.028404,7.0815e-07,0.96,0.24,0
0.05,0.0067411,0.031182,-0.00087606,0.0090919,2.1828e-05,0,0,0.057436,-0.025917,0,0.00011351,0,0,0,0.031182,-0.00087608,0.0090919,0.039012,0.013133,0.028417,7.0845e-07,1,0.24,0
0,0,0.030943,0.013261,0.013261,0.0040233,0,0,0.045973,-2.1684e-19,0,0.020921,0,0,0,0.031816,0.012389,0.013261,12.235,0.019155,0.019006,3.5008e-07,0,0.28,0
0.0018389,0.00083685,0.030703,0.010987,0.012507,0.004035,0,0,0.04731,-0.003952,0,0.020982,0,0,0,0.031497,0.010193,0.012507,11.13,0.018066,0.020246,4.0753e-07,0.04,0.28,0
0.0037848,0.0015689,0.031342,0.0092872,0.012189,0.0038381,0,0,0.049799,-0.0075443,0,0.019958,0,0,0,0.031991,0.0086384,0.012189,9.5952,0.017606,0.021795,4.8455e-07,0.08,0.28,0
0.0058229,0.0021933,0.031836,0.0078406,0.011903,0.0036357,0,0,0.051827,-0.010563,0,0.018906,0,0,0,0.032375,0.0073018,0.011903,8.4291,0.017193,0.023119,5.5084e-07,0.12,0.28,0
0.0079309,0.0026874,0.032063,0.0066691,0.01162,0.0033661,0,0,0.053153,-0.012871,0,0.017504,0,0,0,0.032502,0.0062305,0.01162,7.4241,0.016784,0.024034,5.9395e-07,0.16,0.28,0
0.010075,0.0030052,0.032004,0.0057644,0.011331,0.0028724,0,0,0.053752,-0.014472,0,0.014936,0,0,0,0.032315,0.0054537,0.011331,6.1745,0.016366,0.024458,6.077e-07,0.2,0.28,0
0.012231,0.0030306,0.032958,0.0045413,0.01125,0.002599,0,0,0.056441,-0.017442,0,0.013515,0,0,0,0.033194,0.0043055,0.01125,5.183,0.01625,0.026118,7.016e-07,0.24,0.28,0
0.01459,0.0028914,0.037692,0.0027639,0.012137,0.0020109,0,0,0.046394,-0.016785,0,0.0081998,0,0,0,0.037822,0.0026337,0.012137,3.5402,0.017531,0.031531,1.2709e-06,0.28,0.28,0
0.016194,0.0029633,0.030267,0.001011,0.0093834,0.00067042,0,0,0.037174,-0.014771,0,0.0033154,0,0,0,0.030301,0.00097665,0.0093834,1.7135,0.013554,0.026155,7.3157e-07,0.32,0.28,0
0.017447,0.0030735,0.035579,0.00096067,0.010962,0.00036605,0,0,0.032002,-0.013002,0,0.00095172,0,0,0,0.035583,0.0009568,0.010962,0.60574,0.015834,0.030865,9.9249e-07,0.36,0.28,0
0.018755,0.0031646,0.036667,0.00098492,0.011296,-0.0001615,0,0,0.032983,-0.013404,0,-0.00041989,0,0,0,0.036668,0.00098419,0.011296,-0.25932,0.016316,0.031807,1.0861e-06,0.4,0.28,0
0.020086,0.00328,0.036546,0.00055571,0.01113,-0.00050796,0,0,0.03304,-0.013747,0,-0.0013207,0,0,0,0.036553,0.00054854,0.01113,-0.80846,0.016077,0.032051,1.0906e-06,0.44,0.28,0
0.021398,0.0034306,0.035262,-0.00036789,0.010468,-0.00090943,0,0,0.032232,-0.014087,0,-0.0023645,0,0,0,0.035285,-0.00039109,0.010468,-1.4612,0.015121,0.031675,1.009e-06,0.48,0.28,0
0.022664,0.0035792,0.029899,-0.0010487,0.0086552,-0.00086755,0,0,0.037854,-0.017124,0,-0.0040648,0,0,0,0.029943,-0.0010928,0.0086552,-1.9995,0.012502,0.027491,7.5541e-07,0.52,0.28,0
0.024302,0.0038184,0.036941,-0.00099415,0.010784,-0.0016047,0,0,0.047534,-0.021075,0,-0.006609,0,0,0,0.037019,-0.0010724,0.010784,-2.6267,0.015577,0.033764,1.3277e-06,0.56,0.28,0
0.026731,0.004425,0.03244,0.00064697,0.0099262,-0.0016775,0,0,0.058537,-0.024126,0,-0.0087227,0,0,0,0.032529,0.00055871,0.0099262,-3.0118,0.014338,0.028467,7.6672e-07,0.6,0.28,0
0.028985,0.0049401,0.031676,0.0012613,0.0098813,-0.0015531,0,0,0.056667,-0.022412,0,-0.0080763,0,0,0,0.031755,0.0011822,0.0098813,-2.9157,0.014273,0.027284,6.9688e-07,0.64,0.28,0
0.031264,0.0052293,0.031877,0.00078541,0.0097988,-0.0016527,0,0,0.057404,-0.023435,0,-0.0085939,0,0,0,0.031965,0.0006978,0.0097988,-3.0342,0.014154,0.027855,7.2369e-07,0.68,0.28,0
0.033578,0.0054012,0.032045,0.00031966,0.0097094,-0.0015122,0,0,0.058072,-0.024413,0,-0.0078635,0,0,0,0.032117,0.00024775,0.0097094,-2.7228,0.014025,0.028348,7.4578e-07,0.72,0.28,0
0.03591,0.0055096,0.032061,-0.00011178,0.0095848,-0.0012935,0,0,0.058438,-0.025211,0,-0.0067264,0,0,0,0.032113,-0.00016371,0.0095848,-2.2987,0.013845,0.028674,7.5587e-07,0.76,0.28,0
0.038253,0.0055796,0.032026,-0.00045087,0.0094724,-0.0010598,0,0,0.058638,-0.025801,0,-0.0055112,0,0,0,0.03206,-0.00048542,0.0094724,-1.8672,0.013682,0.028884,7.6004e-07,0.8,0.28,0
0.040601,0.0056254,0.031968,-0.000701,0.0093801,-0.00083033,0,0,0.058729,-0.026211,0,-0.0043177,0,0,0,0.031989,-0.00072209,0.0093801,-1.455,0.013549,0.029011,7.6069e-07,0.84,0.28,0
0.042951,0.005655,0.031907,-0.00087592,0.0093093,-0.00061102,0,0,0.058754,-0.026482,0,-0.0031773,0,0,0,0.031918,-0.00088731,0.0093093,-1.0674,0.013447,0.02908,7.5957e-07,0.88,0.28,0
0.045301,0.0056734,0.031855,-0.00098981,0.0092596,-0.00040151,0,0,0.058748,-0.026648,0,-0.0020878,0,0,0,0.03186,-0.00099472,0.0092596,-0.70026,0.013375,0.029115,7.5794e-07,0.92,0.28,0
0.047651,0.0056834,0.031821,-0.0010536,0.0092302,-0.00019899,0,0,0.058736,-0.026738,0,-0.0010347,0,0,0,0.031822,-0.0010548,0.0092302,-0.34679,0.013333,0.02913,7.5665e-07,0.96,0.28,0
0.05,0.0056866,0.031809,-0.0010742,0.0092204,1.529e-05,0,0,0.05873,-0.026766,0,7.9507e-05,0,0,0,0.031809,-0.0010742,0.0092204,0.026641,0.013318,0.029133,7.5616e-07,1,0.28,0
0,0,0.031864,0.013656,0.013656,0.0032271,0,0,0.04734,-1.0842e-18,0,0.016781,0,0,0,0.032419,0.013101,0.013656,9.759,0.019725,0.019047,3.5385e-07,0,0.32,0
0.0018936,0.00067123,0.031615,0.011161,0.012833,0.0032563,0,0,0.048834,-0.0043464,0,0.016933,0,0,0,0.032121,0.010655,0.012833,8.8308,0.018537,0.020464,4.2339e-07,0.04,0.32,0
0.0039067,0.001257,0.032436,0.0094525,0.012566,0.0031385,0,0,0.05166,-0.0080965,0,0.01632,0,0,0,0.032857,0.0090316,0.012566,7.6377,0.018152,0.022269,5.1935e-07,0.08,0.32,0
0.0060265,0.0017587,0.033236,0.0080779,0.012394,0.0030348,0,0,0.054189,-0.011222,0,0.015781,0,0,0,0.033597,0.007717,0.012394,6.7819,0.017903,0.023888,6.1058e-07,0.12,0.32,0
0.0082419,0.0021568,0.034128,0.0071122,0.012372,0.0028648,0,0,0.056565,-0.013676,0,0.014897,0,0,0,0.034428,0.0068118,0.012372,5.987,0.017871,0.025299,6.9812e-07,0.16,0.32,0
0.010552,0.0024072,0.035322,0.0066429,0.012589,0.0023382,0,0,0.059105,-0.015461,0,0.012159,0,0,0,0.035512,0.0064535,0.012589,4.6305,0.018185,0.026528,7.886e-07,0.2,0.32,0
0.01297,0.0023419,0.041057,0.0053134,0.013911,0.0026457,0,0,0.048969,-0.015233,0,0.010269,0,0,0,0.041261,0.0051088,0.013911,4.4361,0.020094,0.032655,1.5609e-06,0.24,0.32,0
0.014699,0.0022847,0.032623,0.0026,0.010567,0.00023547,0,0,0.039478,-0.01415,0,0.00093397,0,0,0,0.032625,0.002598,0.010567,0.48595,0.015263,0.026942,8.463e-07,0.28,0.32,0
0.015979,0.0024345,0.036656,0.0016774,0.0115,-0.00013364,0,0,0.032703,-0.012769,0,-0.00034747,0,0,0,0.036657,0.0016769,0.0115,-0.21891,0.016611,0.031248,1.0609e-06,0.32,0.32,0
0.017315,0.0025649,0.037133,0.0017929,0.011678,-0.00016817,0,0,0.033092,-0.01285,0,-0.00043724,0,0,0,0.037134,0.0017921,0.011678,-0.27264,0.016868,0.031581,1.0994e-06,0.36,0.32,0
0.018626,0.0026491,0.03661,0.0015376,0.011444,-0.00027946,0,0,0.032716,-0.012879,0,-0.0007266,0,0,0,0.036613,0.0015353,0.011444,-0.45649,0.016531,0.031321,1.062e-06,0.4,0.32,0
0.019933,0.0027501,0.036516,0.001054,0.011271,-0.00018344,0,0,0.032819,-0.013282,0,-0.00047694,0,0,0,0.036517,0.0010531,0.011271,-0.29637,0.01628,0.031618,1.0703e-06,0.44,0.32,0
0.021252,0.0028732,0.036839,0.00024118,0.011124,-0.00015991,0,0,0.033429,-0.014148,0,-0.00041577,0,0,0,0.03684,0.00024048,0.011124,-0.25034,0.016068,0.032552,1.127e-06,0.48,0.32,0
0.022607,0.0029672,0.036288,-0.00098952,0.01059,-4.5835e-06,0,0,0.033408,-0.015053,0,-1.1917e-05,0,0,0,0.036288,-0.00098952,0.01059,-0.0070449,0.015296,0.033046,1.1156e-06,0.52,0.32,0
0.023924,0.0030545,0.032329,-0.00056414,0.0095296,6.5987e-05,0,0,0.040837,-0.017896,0,0.00022673,0,0,0,0.03233,-0.00056427,0.0095296,0.11171,0.013765,0.029187,9.1946e-07,0.56,0.32,0
0.025716,0.0034413,0.040309,0.00015024,0.012138,-0.0016532,0,0,0.05085,-0.021323,0,-0.0064884,0,0,0,0.040381,7.7702e-05,0.012138,-2.5002,0.017532,0.035831,1.7081e-06,0.6,0.32,0
0.028235,0.0040148,0.035008,0.0018315,0.011052,-0.0011061,0,0,0.062286,-0.023973,0,-0.0057519,0,0,0,0.035045,0.0017947,0.011052,-1.9075,0.015964,0.029723,9.2079e-07,0.64,0.32,0
0.030699,0.0042585,0.034057,0.00086737,0.010477,-0.001475,0,0,0.061308,-0.024986,0,-0.00767,0,0,0,0.034123,0.00080194,0.010477,-2.5396,0.015134,0.02969,8.7868e-07,0.68,0.32,0
0.033139,0.0043953,0.033528,0.00017772,0.010112,-0.0013465,0,0,0.060883,-0.025829,0,-0.0070017,0,0,0,0.033583,0.00012345,0.010112,-2.3082,0.014606,0.02975,8.5639e-07,0.72,0.32,0
0.035569,0.0044752,0.033188,-0.00031165,0.0098628,-0.0011383,0,0,0.060645,-0.026454,0,-0.0059189,0,0,0,0.033226,-0.00035029,0.0098628,-1.9438,0.014246,0.029812,8.4202e-07,0.76,0.32,0
0.037991,0.0045248,0.032927,-0.00065775,0.0096808,-0.00091466,0,0,0.060441,-0.02688,0,-0.0047562,0,0,0,0.032952,-0.00068264,0.0096808,-1.5589,0.013983,0.029835,8.2993e-07,0.8,0.32,0
0.040405,0.0045566,0.032718,-0.00089918,0.0095457,-0.00070326,0,0,0.060248,-0.027157,0,-0.0036569,0,0,0,0.032733,-0.00091389,0.0095457,-1.1979,0.013788,0.029826,8.1931e-07,0.84,0.32,0
0.042811,0.0045774,0.032555,-0.0010633,0.0094474,-0.00050955,0,0,0.060079,-0.027328,0,-0.0026497,0,0,0,0.032562,-0.001071,0.0094474,-0.86818,0.013646,0.029801,8.1049e-07,0.88,0.32,0
0.045211,0.0045904,0.032437,-0.0011687,0.0093805,-0.00033111,0,0,0.059947,-0.027428,0,-0.0017218,0,0,0,0.03244,-0.0011719,0.0093805,-0.56445,0.01355,0.029773,8.039e-07,0.92,0.32,0
0.047607,0.0045976,0.032366,-0.0012273,0.0093416,-0.00016301,0,0,0.059864,-0.027479,0,-0.00084763,0,0,0,0.032367,-0.0012281,0.0093416,-0.27801,0.013494,0.029753,7.9984e-07,0.96,0.32,0
0.05,0.0045999,0.032342,-0.0012462,0.0093289,1.1041e-05,0,0,0.059835,-0.027495,0,5.7411e-05,0,0,0,0.032342,-0.0012462,0.0093289,0.018833,0.013475,0.029746,7.9848e-07,1,0.32,0
0,0,0.032586,0.013965,0.013965,0.0023516,0,0,0.048413,1.0842e-18,0,0.012228,0,0,0,0.032878,0.013673,0.013965,7.0878,0.020172,0.019061,3.5538e-07,0,0.36,0
0.0019365,0.00048914,0.032326,0.011277,0.013081,0.0023707,0,0,0.050036,-0.0046901,0,0.012328,0,0,0,0.032589,0.011013,0.013081,6.3473,0.018894,0.02062,4.3507e-07,0.04,0.36,0
0.0040029,0.00092122,0.033273,0.0095435,0.012845,0.0022861,0,0,0.053113,-0.0085838,0,0.011888,0,0,0,0.033491,0.0093253,0.012845,5.4529,0.018554,0.022613,5.4566e-07,0.08,0.36,0
0.0061856,0.0012955,0.034229,0.0082124,0.012732,0.0021818,0,0,0.055891,-0.011752,0,0.011345,0,0,0,0.034411,0.0080307,0.012732,4.7606,0.018391,0.024372,6.5121e-07,0.12,0.36,0
0.0084742,0.0015933,0.035286,0.0073805,0.0128,0.0019291,0,0,0.058463,-0.01409,0,0.010031,0,0,0,0.035418,0.0072477,0.0128,3.9359,0.018489,0.025846,7.5065e-07,0.16,0.36,0
0.010863,0.0017683,0.03624,0.0071154,0.013007,0.0013599,0,0,0.060406,-0.015317,0,0.0070713,0,0,0,0.036303,0.0070521,0.013007,2.6675,0.018787,0.026775,8.2386e-07,0.2,0.36,0
0.013307,0.0017723,0.035973,0.0046526,0.012188,0.0013076,0,0,0.046196,-0.013061,0,0.0044327,0,0,0,0.036033,0.0045931,0.012188,2.3202,0.017604,0.02847,8.8349e-07,0.24,0.36,0
0.014558,0.0018003,0.036802,0.003191,0.011998,0.00015366,0,0,0.032245,-0.011449,0,0.00039953,0,0,0,0.036803,0.0031903,0.011998,0.26194,0.01733,0.030188,1.018e-06,0.28,0.36,0
0.015886,0.0019417,0.037371,0.0026044,0.011993,0.00044687,0,0,0.032992,-0.012205,0,0.0011619,0,0,0,0.037377,0.0025987,0.011993,0.73628,0.017323,0.031162,1.0912e-06,0.32,0.36,0
0.017198,0.0020454,0.036817,0.0017769,0.011578,-5.2933e-06,0,0,0.032811,-0.012742,0,-1.3763e-05,0,0,0,0.036817,0.0017769,0.011578,-0.0086552,0.016724,0.031312,1.0716e-06,0.36,0.36,0
0.018511,0.0021343,0.036735,0.0015515,0.011486,-0.00012402,0,0,0.032824,-0.012915,0,-0.00032245,0,0,0,0.036735,0.0015511,0.011486,-0.20196,0.016591,0.031418,1.0724e-06,0.4,0.36,0
0.019824,0.0022174,0.036637,0.0009955,0.01129,-0.00012375,0,0,0.032951,-0.013383,0,-0.00032176,0,0,0,0.036637,0.00099507,0.01129,-0.19894,0.016307,0.031772,1.083e-06,0.44,0.36,0
0.021147,0.0022988,0.036552,7.9351e-05,0.010989,-0.00015926,0,0,0.033231,-0.014183,0,-0.00041407,0,0,0,0.036553,7.8656e-05,0.010989,-0.25018,0.015874,0.032426,1.1061e-06,0.48,0.36,0
0.022482,0.002375,0.036914,-0.00038173,0.01096,-0.00043499,0,0,0.033741,-0.014744,0,-0.001131,0,0,0,0.036919,-0.0003868,0.01096,-0.66812,0.015831,0.033124,1.1551e-06,0.52,0.36,0
0.023847,0.0024347,0.036367,-0.00098565,0.010614,0.00020261,0,0,0.033478,-0.01508,0,0.00052678,0,0,0,0.036368,-0.00098675,0.010614,0.31077,0.015332,0.033115,1.1229e-06,0.56,0.36,0
0.02516,0.0026538,0.035451,-0.00021864,0.01057,-0.0005426,0,0,0.048268,-0.0187,0,-0.0012582,0,0,0,0.035469,-0.00023707,0.01057,-0.76173,0.015267,0.031802,9.7728e-07,0.6,0.36,0
0.027708,0.0030223,0.036003,0.0021238,0.011438,-0.00039508,0,0,0.063869,-0.024217,0,-0.0020544,0,0,0,0.036008,0.0021192,0.011438,-0.66803,0.016522,0.030323,9.8923e-07,0.64,0.36,0
0.03027,0.0032304,0.035362,0.00089718,0.010878,-0.00082374,0,0,0.063659,-0.025949,0,-0.0042835,0,0,0,0.035382,0.0008775,0.010878,-1.3684,0.015712,0.030749,9.781e-07,0.68,0.36,0
0.032801,0.0033349,0.034612,4.1679e-05,0.010396,-0.00088159,0,0,0.062961,-0.026921,0,-0.0045843,0,0,0,0.034634,1.9212e-05,0.010396,-1.4599,0.015016,0.030768,9.4254e-07,0.72,0.36,0
0.035307,0.0033933,0.034064,-0.00048649,0.010073,-0.00076687,0,0,0.062375,-0.027455,0,-0.0039877,0,0,0,0.034081,-0.0005035,0.010073,-1.2709,0.01455,0.030694,9.1264e-07,0.76,0.36,0
0.037791,0.0034292,0.033634,-0.0008293,0.0098415,-0.00061581,0,0,0.061861,-0.027744,0,-0.0032022,0,0,0,0.033645,-0.0008403,0.0098415,-1.0233,0.014216,0.030578,8.8718e-07,0.8,0.36,0
0.040256,0.0034528,0.0333,-0.0010571,0.0096729,-0.00046941,0,0,0.061431,-0.027898,0,-0.0024409,0,0,0,0.033307,-0.0010635,0.0096729,-0.78261,0.013972,0.030456,8.6654e-07,0.84,0.36,0
0.042705,0.0034688,0.03305,-0.0012078,0.0095528,-0.00033714,0,0,0.061094,-0.027978,0,-0.0017531,0,0,0,0.033054,-0.0012111,0.0095528,-0.56379,0.013799,0.03035,8.508e-07,0.88,0.36,0
0.045143,0.0034792,0.032877,-0.0013033,0.0094722,-0.00021761,0,0,0.060854,-0.028017,0,-0.0011316,0,0,0,0.032879,-0.0013047,0.0094722,-0.36474,0.013682,0.03027,8.3979e-07,0.92,0.36,0
0.047573,0.0034851,0.032776,-0.0013563,0.0094259,-0.00010669,0,0,0.06071,-0.028034,0,-0.00055481,0,0,0,0.032776,-0.0013566,0.0094259,-0.1791,0.013615,0.030221,8.3329e-07,0.96,0.36,0
0.05,0.003487,0.032742,-0.0013732,0.0094108,9.2217e-06,0,0,0.060662,-0.028038,0,4.7953e-05,0,0,0,0.032742,-0.0013732,0.0094108,0.015487,0.013593,0.030204,8.3114e-07,1,0.36,0
0,0,0.032958,0.014125,0.014125,0.0014232,0,0,0.048965,-2.1684e-19,0,0.0074007,0,0,0,0.033064,0.014018,0.014125,4.2974,0.020402,0.018993,3.5188e-07,0,0.4,0
0.0019586,0.00029603,0.032688,0.011348,0.013211,0.0014164,0,0,0.050642,-0.0048439,0,0.0073653,0,0,0,0.032782,0.011254,0.013211,3.7807,0.019082,0.020619,4.3659e-07,0.04,0.4,0
0.0040513,0.00057033,0.033675,0.009611,0.012986,0.0013501,0,0,0.053792,-0.0087744,0,0.0070203,0,0,0,0.03375,0.0095355,0.012986,3.2011,0.018757,0.022687,5.5328e-07,0.08,0.4,0
0.0062619,0.00081854,0.034604,0.0083019,0.012872,0.0012447,0,0,0.056504,-0.011882,0,0.0064726,0,0,0,0.034663,0.0082431,0.012872,2.7034,0.018593,0.024436,6.5971e-07,0.12,0.4,0
0.0085716,0.0010296,0.035335,0.007504,0.012852,0.0010402,0,0,0.058456,-0.013904,0,0.005409,0,0,0,0.035374,0.0074652,0.012852,2.1375,0.018564,0.025643,7.3886e-07,0.16,0.4,0
0.010938,0.0011818,0.035678,0.0075863,0.012979,0.00073492,0,0,0.059016,-0.014021,0,0.0038216,0,0,0,0.035697,0.0075671,0.012979,1.4976,0.018748,0.025852,7.5794e-07,0.2,0.4,0
0.013293,0.001297,0.03604,0.0056971,0.012521,0.00041085,0,0,0.04529,-0.011828,0,0.0016057,0,0,0,0.036045,0.0056915,0.012521,0.7846,0.018086,0.027621,8.5244e-07,0.24,0.4,0
0.014562,0.0013687,0.036381,0.0036784,0.012018,0.00055856,0,0,0.031672,-0.010841,0,0.0014522,0,0,0,0.036391,0.0036689,0.012018,0.97822,0.017359,0.029449,9.6492e-07,0.28,0.4,0
0.015827,0.0014582,0.036296,0.002638,0.01168,0.00031852,0,0,0.032001,-0.011755,0,0.00082814,0,0,0,0.036299,0.002635,0.01168,0.54214,0.016872,0.030176,9.9553e-07,0.32,0.4,0
0.017122,0.0015455,0.036607,0.0020273,0.01159,0.00014117,0,0,0.032522,-0.012432,0,0.00036703,0,0,0,0.036608,0.0020267,0.01159,0.2339,0.016741,0.030929,1.0441e-06,0.36,0.4,0
0.018428,0.0016159,0.036637,0.001492,0.011439,-4.7038e-06,0,0,0.032758,-0.012931,0,-1.223e-05,0,0,0,0.036637,0.001492,0.011439,-0.0076685,0.016522,0.031377,1.0657e-06,0.4,0.4,0
0.019742,0.0016795,0.036544,0.00089347,0.011231,-4.5109e-05,0,0,0.032906,-0.013439,0,-0.00011728,0,0,0,0.036544,0.00089341,0.011231,-0.072496,0.016223,0.031769,1.0782e-06,0.44,0.4,0
0.021061,0.0017385,0.036325,0.00019798,0.010957,-0.00012777,0,0,0.032978,-0.013987,0,-0.0003322,0,0,0,0.036325,0.00019752,0.010957,-0.20264,0.015827,0.032129,1.0817e-06,0.48,0.4,0
0.022381,0.0017877,0.035877,-0.00047701,0.01062,-0.00018063,0,0,0.032834,-0.014426,0,-0.00046963,0,0,0,0.035878,-0.0004779,0.01062,-0.28467,0.01534,0.032272,1.0632e-06,0.52,0.4,0
0.023688,0.0018481,0.035968,-0.00091601,0.010516,-0.0002118,0,0,0.033088,-0.014861,0,-0.00055069,0,0,0,0.03597,-0.00091722,0.010516,-0.329,0.015189,0.032705,1.0846e-06,0.56,0.4,0
0.025028,0.0019454,0.035597,0.00059044,0.010856,0.00016247,0,0,0.047577,-0.017794,0,0.00070816,0,0,0,0.035598,0.00058951,0.010856,0.28239,0.015681,0.031239,9.7745e-07,0.6,0.4,0
0.027494,0.0020774,0.035536,0.0025368,0.011422,-2.8644e-05,0,0,0.062698,-0.023102,0,-0.00014895,0,0,0,0.035537,0.0025368,0.011422,-0.049733,0.016498,0.029576,9.3558e-07,0.64,0.4,0
0.030044,0.0021825,0.035491,0.00082684,0.010895,-0.00022165,0,0,0.063948,-0.026178,0,-0.0011526,0,0,0,0.035492,0.00082543,0.010895,-0.36634,0.015738,0.030888,9.8907e-07,0.68,0.4,0
0.03261,0.0022416,0.035089,-5.8242e-05,0.010509,-0.00028856,0,0,0.063908,-0.027475,0,-0.0015005,0,0,0,0.035091,-6.0611e-05,0.010509,-0.47036,0.01518,0.031238,9.8278e-07,0.72,0.4,0
0.035156,0.0022788,0.034538,-0.00059129,0.010184,-0.00026053,0,0,0.06332,-0.028015,0,-0.0013547,0,0,0,0.03454,-0.00059322,0.010184,-0.42489,0.01471,0.031174,9.5233e-07,0.76,0.4,0
0.037675,0.0023052,0.034037,-0.00092638,0.0099333,-0.00020941,0,0,0.062671,-0.028235,0,-0.0010889,0,0,0,0.034039,-0.00092764,0.0099333,-0.34315,0.014348,0.030997,9.2073e-07,0.8,0.4,0
0.04017,0.0023248,0.033637,-0.0011436,0.009748,-0.00015907,0,0,0.062111,-0.028318,0,-0.00082716,0,0,0,0.033638,-0.0011444,0.009748,-0.26203,0.01408,0.030815,8.9445e-07,0.84,0.4,0
0.042644,0.0023392,0.033339,-0.0012855,0.009616,-0.00011392,0,0,0.061679,-0.028344,0,-0.00059239,0,0,0,0.033339,-0.0012858,0.009616,-0.18851,0.01389,0.030664,8.7463e-07,0.88,0.4,0
0.045104,0.0023491,0.033134,-0.0013749,0.0095279,-7.346e-05,0,0,0.061377,-0.028347,0,-0.00038199,0,0,0,0.033135,-0.001375,0.0095279,-0.12197,0.013763,0.030554,8.61e-07,0.92,0.4,0
0.047554,0.0023549,0.033016,-0.0014243,0.0094773,-3.602e-05,0,0,0.061199,-0.028344,0,-0.00018731,0,0,0,0.033016,-0.0014244,0.0094773,-0.059925,0.01369,0.030488,8.5307e-07,0.96,0.4,0
0.05,0.0023568,0.032976,-0.0014402,0.0094609,9.2212e-06,0,0,0.061141,-0.028343,0,4.795e-05,0,0,0,0.032976,-0.0014402,0.0094609,0.015351,0.013666,0.030466,8.5046e-07,1,0.4,0
0,0,0.032904,0.014101,0.014101,0.00048858,0,0,0.048885,-2.1684e-19,0,0.0025406,0,0,0,0.032916,0.014089,0.014101,1.4875,0.020369,0.018821,3.4242e-07,0,0.44,0
0.0019554,0.00010162,0.032641,0.011385,0.013208,0.00045114,0,0,0.050525,-0.0047386,0,0.0023459,0,0,0,0.03265,0.011376,0.013208,1.2154,0.019078,0.02042,4.2547e-07,0.04,0.44,0
0.004042,0.00021927,0.033609,0.0096921,0.01299,0.00040228,0,0,0.053609,-0.0085755,0,0.0020919,0,0,0,0.033616,0.0096854,0.01299,0.96333,0.018764,0.022461,5.3976e-07,0.08,0.44,0
0.0062441,0.000345,0.034525,0.0084162,0.012882,0.00031819,0,0,0.05627,-0.011612,0,0.0016546,0,0,0,0.034528,0.0084123,0.012882,0.69814,0.018608,0.024193,6.4437e-07,0.12,0.44,0
0.0085436,0.00048104,0.035256,0.0076369,0.012868,0.00029063,0,0,0.058209,-0.013601,0,0.0015113,0,0,0,0.035259,0.0076338,0.012868,0.60282,0.018587,0.025416,7.2413e-07,0.16,0.44,0
0.010901,0.00064657,0.03561,0.0076962,0.012992,0.00037242,0,0,0.058808,-0.013769,0,0.0019366,0,0,0,0.035615,0.0076912,0.012992,0.76424,0.018766,0.025687,7.4708e-07,0.2,0.44,0
0.013248,0.000826,0.035977,0.0057783,0.012527,0.00050529,0,0,0.045157,-0.011697,0,0.0020535,0,0,0,0.035986,0.0057694,0.012527,0.98131,0.018094,0.027508,8.4509e-07,0.24,0.44,0
0.014513,0.00093299,0.036355,0.0038172,0.012052,0.00012368,0,0,0.031594,-0.010705,0,0.00032156,0,0,0,0.036355,0.0038167,0.012052,0.21778,0.017408,0.029302,9.5636e-07,0.28,0.44,0
0.015776,0.0010013,0.036293,0.0027636,0.011717,0.00010889,0,0,0.031949,-0.011639,0,0.00028311,0,0,0,0.036293,0.0027632,0.011717,0.18607,0.016925,0.03007,9.9038e-07,0.32,0.44,0
0.017069,0.0010509,0.036626,0.0021111,0.011621,7.8764e-05,0,0,0.032506,-0.012363,0,0.00020479,0,0,0,0.036626,0.0021109,0.011621,0.13075,0.016786,0.030879,1.0427e-06,0.36,0.44,0
0.018376,0.0010998,0.036681,0.0015432,0.011467,8.2756e-05,0,0,0.032778,-0.012901,0,0.00021517,0,0,0,0.036682,0.001543,0.011467,0.13494,0.016564,0.031377,1.0679e-06,0.4,0.44,0
0.019692,0.0011423,0.036605,0.00091627,0.011256,4.3274e-05,0,0,0.032953,-0.013442,0,0.00011251,0,0,0,0.036605,0.00091622,0.011256,0.069473,0.016259,0.031805,1.0828e-06,0.44,0.44,0
0.021012,0.0011799,0.036396,0.00020066,0.010979,9.4829e-05,0,0,0.033042,-0.014012,0,0.00024656,0,0,0,0.036396,0.00020041,0.010979,0.15011,0.015859,0.03219,1.088e-06,0.48,0.44,0
0.022335,0.0012209,0.03595,-0.00048696,0.010639,0.00014751,0,0,0.032904,-0.014464,0,0.00038353,0,0,0,0.03595,-0.00048756,0.010639,0.23195,0.015367,0.032343,1.0699e-06,0.52,0.44,0
0.023645,0.0012458,0.036043,-0.00092348,0.010536,0.00019499,0,0,0.03316,-0.014897,0,0.00050697,0,0,0,0.036044,-0.00092451,0.010536,0.30221,0.015218,0.032777,1.0915e-06,0.56,0.44,0
0.024988,0.0012303,0.035668,0.00058253,0.010875,-0.00016153,0,0,0.047676,-0.017841,0,-0.00072862,0,0,0,0.035669,0.00058152,0.010875,-0.28412,0.015709,0.031309,9.8359e-07,0.6,0.44,0
0.027459,0.0011742,0.035603,0.0025298,0.01144,3.9772e-05,0,0,0.062823,-0.023166,0,0.00020682,0,0,0,0.035603,0.0025298,0.01144,0.068902,0.016524,0.02964,9.4121e-07,0.64,0.44,0
0.030014,0.0011361,0.035554,0.00082124,0.010913,0.0002419,0,0,0.064068,-0.026238,0,0.0012579,0,0,0,0.035556,0.00081956,0.010913,0.39901,0.015763,0.03095,9.9463e-07,0.68,0.44,0
0.032584,0.0011369,0.035147,-5.9616e-05,0.010526,0.00031621,0,0,0.064015,-0.027523,0,0.0016443,0,0,0,0.03515,-6.2455e-05,0.010526,0.51454,0.015205,0.031292,9.8776e-07,0.72,0.44,0
0.035135,0.0011521,0.034591,-0.00058973,0.0102,0.00028973,0,0,0.063416,-0.028054,0,0.0015066,0,0,0,0.034593,-0.00059212,0.0102,0.47181,0.014734,0.031221,9.5674e-07,0.76,0.44,0
0.037658,0.0011703,0.034088,-0.00092316,0.0099495,0.00023528,0,0,0.062761,-0.028269,0,0.0012234,0,0,0,0.03409,-0.00092475,0.0099495,0.38501,0.014372,0.03104,9.2477e-07,0.8,0.44,0
0.040156,0.0011874,0.033687,-0.00114,0.009764,0.00017906,0,0,0.062199,-0.02835,0,0.0009311,0,0,0,0.033688,-0.0011409,0.009764,0.29457,0.014104,0.030857,8.983e-07,0.84,0.44,0
0.042634,0.0012013,0.033388,-0.0012822,0.0096318,0.00012756,0,0,0.061767,-0.028376,0,0.00066329,0,0,0,0.033389,-0.0012827,0.0096318,0.21079,0.013913,0.030705,8.7841e-07,0.88,0.44,0
0.045097,0.0012114,0.033184,-0.0013724,0.0095435,8.1525e-05,0,0,0.061465,-0.028381,0,0.00042393,0,0,0,0.033184,-0.0013726,0.0095435,0.13517,0.013785,0.030596,8.6477e-07,0.92,0.44,0
0.047551,0.0012175,0.033065,-0.0014225,0.0094929,3.9664e-05,0,0,0.061289,-0.02838,0,0.00020625,0,0,0,0.033065,-0.0014226,0.0094929,0.065895,0.013712,0.030531,8.5684e-07,0.96,0.44,0
0.05,0.0012196,0.033026,-0.0014387,0.0094763,9.8362e-06,0,0,0.06123,-0.028379,0,5.1148e-05,0,0,0,0.033026,-0.0014387,0.0094763,0.016352,0.013688,0.030509,8.5424e-07,1,0.44,0
0,0,0.032426,0.013897,0.013897,-0.00039932,0,0,0.048176,-6.5052e-19,0,-0.0020764,0,0,0,0.032434,0.013888,0.013897,-1.234,0.020073,0.018542,3.2741e-07,0,0.48,0
0.001927,-8.3058e-05,0.032185,0.011391,0.013073,-0.00046407,0,0,0.049691,-0.0043726,0,-0.0024132,0,0,0,0.032195,0.011381,0.013073,-1.2779,0.018883,0.020022,4.0233e-07,0.04,0.48,0
0.0039753,-0.00011572,0.03308,0.0097915,0.012862,-0.00050056,0,0,0.052569,-0.0079822,0,-0.0026029,0,0,0,0.033091,0.0097808,0.012862,-1.2307,0.018578,0.021933,5.0603e-07,0.08,0.48,0
0.0061325,-0.0001104,0.033997,0.0085621,0.012768,-0.00059623,0,0,0.055196,-0.010934,0,-0.0031004,0,0,0,0.034011,0.0085481,0.012768,-1.3421,0.018442,0.023637,6.0605e-07,0.12,0.48,0
0.0083909,-5.8477e-05,0.035036,0.0077786,0.012844,-0.00059649,0,0,0.057698,-0.013171,0,-0.0031018,0,0,0,0.035049,0.0077656,0.012844,-1.253,0.018553,0.025132,7.0435e-07,0.16,0.48,0
0.010748,8.0321e-05,0.036038,0.0074899,0.013058,-0.0002836,0,0,0.059748,-0.014478,0,-0.0014747,0,0,0,0.036041,0.0074871,0.013058,-0.5691,0.018862,0.026216,7.8636e-07,0.2,0.48,0
0.013171,0.00036129,0.03578,0.0048816,0.012198,-0.00044505,0,0,0.045795,-0.012682,0,-0.0010016,0,0,0,0.035795,0.0048662,0.012198,-0.73754,0.01762,0.028046,8.5586e-07,0.24,0.48,0
0.014412,0.00051236,0.03673,0.0036306,0.012108,0.00046636,0,0,0.032009,-0.011021,0,0.0012125,0,0,0,0.036737,0.0036241,0.012108,0.80706,0.01749,0.029791,9.9578e-07,0.28,0.48,0
0.015731,0.00052701,0.037359,0.0029553,0.012094,-7.734e-05,0,0,0.032844,-0.011881,0,-0.00020108,0,0,0,0.037359,0.0029552,0.012094,-0.1288,0.01747,0.030867,1.0759e-06,0.32,0.48,0
0.01704,0.00055649,0.036895,0.0020259,0.011676,0.00017559,0,0,0.032785,-0.012546,0,0.00045652,0,0,0,0.036896,0.0020251,0.011676,0.28851,0.016866,0.031186,1.0696e-06,0.36,0.48,0
0.018354,0.00058378,0.036877,0.0016998,0.011573,0.00016562,0,0,0.032895,-0.012835,0,0.00043062,0,0,0,0.036878,0.001699,0.011573,0.26975,0.016717,0.031428,1.0798e-06,0.4,0.48,0
0.019671,0.00060411,0.036825,0.0010588,0.011365,9.7942e-05,0,0,0.033098,-0.013398,0,0.00025465,0,0,0,0.036825,0.0010585,0.011365,0.1569,0.016416,0.031888,1.0977e-06,0.44,0.48,0
0.021002,0.00061758,0.036767,8.0708e-05,0.011054,0.0001134,0,0,0.033426,-0.014266,0,0.00029484,0,0,0,0.036767,8.0358e-05,0.011054,0.1771,0.015967,0.032615,1.1257e-06,0.48,0.48,0
0.022345,0.00063062,0.037145,-0.00040872,0.011021,0.000401,0,0,0.033961,-0.014858,0,0.0010426,0,0,0,0.037149,-0.000413,0.011021,0.61172,0.015919,0.033349,1.1776e-06,0.52,0.48,0
0.023719,0.00065633,0.036593,-0.0010183,0.010672,-0.00022012,0,0,0.033696,-0.015198,0,-0.0005723,0,0,0,0.036594,-0.0010196,0.010672,-0.33531,0.015416,0.033342,1.1447e-06,0.56,0.48,0
0.025041,0.00051812,0.035658,-0.00025452,0.010621,0.00055789,0,0,0.04857,-0.018851,0,0.0012852,0,0,0,0.035678,-0.00027411,0.010621,0.7765,0.015342,0.032018,9.9546e-07,0.6,0.48,0
0.027605,0.00022418,0.036206,0.0021033,0.011493,0.00041873,0,0,0.064255,-0.024413,0,0.0021774,0,0,0,0.036211,0.0020981,0.011493,0.70336,0.016601,0.03052,1.0073e-06,0.64,0.48,0
0.030181,8.3517e-05,0.035549,0.0008847,0.01093,0.00085738,0,0,0.06401,-0.026118,0,0.0044584,0,0,0,0.035571,0.0008635,0.01093,1.416,0.015788,0.030928,9.9448e-07,0.68,0.48,0
0.032725,3.9703e-05,0.034781,3.9654e-05,0.010446,0.00091911,0,0,0.063271,-0.027057,0,0.0047794,0,0,0,0.034806,1.5355e-05,0.010446,1.5144,0.015089,0.030924,9.5673e-07,0.72,0.48,0
0.035243,3.4458e-05,0.034221,-0.00048011,0.010122,0.00080176,0,0,0.062657,-0.027566,0,0.0041692,0,0,0,0.03424,-0.00049863,0.010122,1.3229,0.014621,0.030832,9.2528e-07,0.76,0.48,0
0.037738,4.3712e-05,0.033785,-0.00081845,0.00989,0.00064417,0,0,0.062127,-0.027842,0,0.0033497,0,0,0,0.033797,-0.00083044,0.00989,1.0661,0.014286,0.030705,8.9888e-07,0.8,0.48,0
0.040213,5.6761e-05,0.033448,-0.0010454,0.0097209,0.00048977,0,0,0.061691,-0.027992,0,0.0025468,0,0,0,0.033455,-0.0010524,0.0097209,0.81331,0.014041,0.030579,8.7779e-07,0.84,0.48,0
0.042673,6.9038e-05,0.033198,-0.0011978,0.0096002,0.00035005,0,0,0.061355,-0.028075,0,0.0018203,0,0,0,0.033202,-0.0012014,0.0096002,0.58302,0.013867,0.030474,8.6191e-07,0.88,0.48,0
0.045122,7.8554e-05,0.033026,-0.001296,0.0095191,0.00022468,0,0,0.061119,-0.028119,0,0.0011684,0,0,0,0.033028,-0.0012975,0.0095191,0.37505,0.01375,0.030396,8.5093e-07,0.92,0.48,0
0.047563,8.4473e-05,0.032926,-0.0013512,0.0094723,0.00010969,0,0,0.060979,-0.028141,0,0.00057037,0,0,0,0.032926,-0.0013515,0.0094723,0.18334,0.013682,0.03035,8.4449e-07,0.96,0.48,0
0.05,8.6474e-05,0.032893,-0.001369,0.0094571,9.619e-06,0,0,0.060932,-0.028148,0,5.0019e-05,0,0,0,0.032893,-0.001369,0.0094571,0.016086,0.01366,0.030334,8.4237e-07,1,0.48,0
0,0,0.031602,0.013544,0.013544,-0.0011932,0,0,0.046952,8.6736e-19,0,-0.0062045,0,0,0,0.031681,0.013465,0.013544,-3.7639,0.019563,0.018176,3.084e-07,0,0.52,0
0.0018781,-0.00024818,0.031387,0.011359,0.012824,-0.0012721,0,0,0.048264,-0.0038087,0,-0.0066146,0,0,0,0.031467,0.011278,0.012824,-3.6197,0.018523,0.019462,3.7059e-07,0.04,0.52,0
0.0038611,-0.00041931,0.032126,0.0098834,0.012603,-0.0012897,0,0,0.05076,-0.0070702,0,-0.0067063,0,0,0,0.0322,0.0098089,0.012603,-3.3074,0.018204,0.021133,4.5633e-07,0.08,0.52,0
0.0059388,-0.00052976,0.032869,0.0086861,0.012466,-0.0014107,0,0,0.053046,-0.0098287,0,-0.0073357,0,0,0,0.032951,0.0086041,0.012466,-3.3274,0.018007,0.022663,5.398e-07,0.12,0.52,0
0.0081048,-0.00057264,0.033731,0.0078029,0.01246,-0.0015245,0,0,0.055303,-0.012108,0,-0.0079272,0,0,0,0.03382,0.0077136,0.01246,-3.3534,0.017998,0.024086,6.2479e-07,0.16,0.52,0
0.010363,-0.00051168,0.034933,0.0072913,0.012667,-0.0013181,0,0,0.057891,-0.013978,0,-0.0068538,0,0,0,0.034996,0.0072286,0.012667,-2.7238,0.018297,0.025487,7.2151e-07,0.2,0.52,0
0.012736,-0.00018859,0.040702,0.0057295,0.013929,-0.0018861,0,0,0.048251,-0.014446,0,-0.007373,0,0,0,0.04081,0.0056215,0.013929,-3.2707,0.02012,0.03186,1.4854e-06,0.24,0.52,0
0.014445,5.1319e-05,0.032596,0.0032668,0.010759,0.00022211,0,0,0.039067,-0.013278,0,0.00076295,0,0,0,0.032598,0.0032651,0.010759,0.42167,0.015541,0.026396,8.2215e-07,0.28,0.52,0
0.015716,5.0863e-05,0.036745,0.0022639,0.011703,0.00040384,0,0,0.032555,-0.01227,0,0.00105,0,0,0,0.036749,0.0022592,0.011703,0.67093,0.016904,0.030871,1.0481e-06,0.32,0.52,0
0.017049,4.723e-05,0.037311,0.0022017,0.011854,0.00025009,0,0,0.033094,-0.012548,0,0.00065023,0,0,0,0.037313,0.0021999,0.011854,0.4081,0.017122,0.031419,1.1006e-06,0.36,0.52,0
0.018363,7.2984e-05,0.036867,0.0017582,0.011588,0.00025577,0,0,0.032863,-0.012778,0,0.000665,0,0,0,0.036869,0.0017563,0.011588,0.41737,0.016738,0.031374,1.0769e-06,0.4,0.52,0
0.019678,7.0435e-05,0.036843,0.0011429,0.011396,0.00011571,0,0,0.033081,-0.013329,0,0.00030086,0,0,0,0.036843,0.0011425,0.011396,0.18571,0.01646,0.031837,1.0964e-06,0.44,0.52,0
0.02101,3.8654e-05,0.037207,0.00023086,0.011231,9.3254e-05,0,0,0.033768,-0.014301,0,0.00024246,0,0,0,0.037207,0.00023063,0.011231,0.1445,0.016223,0.032886,1.1615e-06,0.48,0.52,0
0.02238,3.2247e-05,0.036664,-0.0010528,0.010683,-3.714e-05,0,0,0.033775,-0.015257,0,-9.6563e-05,0,0,0,0.036664,-0.0010528,0.010683,-0.05642,0.015431,0.033431,1.1523e-06,0.52,0.52,0
0.023711,3.0023e-05,0.032658,-0.0006333,0.0096073,-6.7537e-05,0,0,0.041285,-0.018169,0,-0.000233,0,0,0,0.032658,-0.00063343,0.0096073,-0.1133,0.013877,0.029535,9.4976e-07,0.56,0.52,0
0.025523,-0.00027784,0.040729,0.00012042,0.012255,0.0016974,0,0,0.051394,-0.0216,0,0.0066541,0,0,0,0.040805,4.4951e-05,0.012255,2.5358,0.017701,0.036233,1.7645e-06,0.6,0.52,0
0.028068,-0.00077886,0.035333,0.0018032,0.011141,0.0011554,0,0,0.062901,-0.024278,0,0.0060079,0,0,0,0.035373,0.0017634,0.011141,1.9711,0.016093,0.03004,9.4852e-07,0.64,0.52,0
0.030555,-0.00095334,0.034349,0.00085301,0.010561,0.0015327,0,0,0.061851,-0.02524,0,0.0079702,0,0,0,0.034419,0.00078302,0.010561,2.6145,0.015254,0.029969,9.0259e-07,0.68,0.52,0
0.033016,-0.0010277,0.033797,0.00018059,0.010193,0.0014,0,0,0.061369,-0.026033,0,0.00728,0,0,0,0.033855,0.00012239,0.010193,2.3807,0.014724,0.029993,8.7745e-07,0.72,0.52,0
0.035464,-0.0010532,0.033441,-0.00029587,0.0099437,0.0011821,0,0,0.061094,-0.026623,0,0.0061467,0,0,0,0.033483,-0.00033723,0.0099437,2.0042,0.014363,0.03003,8.6125e-07,0.76,0.52,0
0.037903,-0.001057,0.033174,-0.00063596,0.0097613,0.00094634,0,0,0.060872,-0.027033,0,0.004921,0,0,0,0.0332,-0.00066243,0.0097613,1.6021,0.0141,0.030039,8.4815e-07,0.8,0.52,0
0.040334,-0.001052,0.032962,-0.00087763,0.0096254,0.00072329,0,0,0.060676,-0.027308,0,0.0037611,0,0,0,0.032978,-0.00089309,0.0096254,1.2239,0.013903,0.030027,8.3715e-07,0.84,0.52,0
0.042757,-0.0010447,0.0328,-0.001046,0.0095262,0.00052031,0,0,0.060512,-0.027488,0,0.0027056,0,0,0,0.032808,-0.001054,0.0095262,0.88052,0.01376,0.030005,8.2836e-07,0.88,0.52,0
0.045175,-0.0010381,0.032685,-0.0011569,0.0094584,0.00033579,0,0,0.060389,-0.0276,0,0.0017461,0,0,0,0.032688,-0.0011603,0.0094584,0.56844,0.013662,0.029984,8.2198e-07,0.92,0.52,0
0.047588,-0.0010337,0.032616,-0.0012201,0.0094188,0.00016451,0,0,0.060313,-0.027661,0,0.00085543,0,0,0,0.032617,-0.0012209,0.0094188,0.27855,0.013605,0.02997,8.1813e-07,0.96,0.52,0
0.05,-0.0010322,0.032593,-0.0012406,0.0094058,7.2952e-06,0,0,0.060288,-0.027681,0,3.7935e-05,0,0,0,0.032593,-0.0012406,0.0094058,0.012354,0.013586,0.029965,8.1684e-07,1,0.52,0
0,0,0.030577,0.013104,0.013104,-0.0018642,0,0,0.045429,-7.5894e-19,0,-0.0096939,0,0,0,0.030774,0.012908,0.013104,-6.0227,0.018929,0.017768,2.88e-07,0,0.56,0
0.0018172,-0.00038775,0.030387,0.011281,0.0125,-0.0019344,0,0,0.046505,-0.0031704,0,-0.010059,0,0,0,0.030581,0.011087,0.0125,-5.7235,0.018056,0.018827,3.3622e-07,0.04,0.56,0
0.0037204,-0.00068134,0.030919,0.0099344,0.012256,-0.0019007,0,0,0.048523,-0.0060361,0,-0.0098834,0,0,0,0.031089,0.0097636,0.012256,-5.1339,0.017703,0.020195,4.014e-07,0.08,0.56,0
0.005699,-0.00089669,0.031351,0.0087568,0.012032,-0.0019705,0,0,0.050229,-0.0085168,0,-0.010247,0,0,0,0.031522,0.0085862,0.012032,-4.9471,0.01738,0.021421,4.6113e-07,0.12,0.56,0
0.0077387,-0.0010272,0.031584,0.0077177,0.01179,-0.0020446,0,0,0.051463,-0.010589,0,-0.010632,0,0,0,0.031758,0.0075438,0.01179,-4.8614,0.017031,0.022395,5.0763e-07,0.16,0.56,0
0.009816,-0.0010379,0.031607,0.0067788,0.011516,-0.0019289,0,0,0.052238,-0.012316,0,-0.01003,0,0,0,0.031757,0.0066298,0.011516,-4.4159,0.016634,0.023075,5.3688e-07,0.2,0.56,0
0.011918,-0.00082242,0.032646,0.005366,0.011404,-0.0020471,0,0,0.05523,-0.015698,0,-0.010645,0,0,0,0.032799,0.0052132,0.011404,-4.2676,0.016472,0.02507,6.4596e-07,0.24,0.56,0
0.014235,-0.00051486,0.037597,0.0037049,0.012391,-0.0017397,0,0,0.045724,-0.015506,0,-0.0071714,0,0,0,0.0377,0.0036017,0.012391,-3.1892,0.017898,0.030665,1.2191e-06,0.28,0.56,0
0.01582,-0.00045462,0.030325,0.001714,0.0096117,-0.00057178,0,0,0.036834,-0.0139,0,-0.002935,0,0,0,0.030355,0.0016842,0.0096117,-1.5496,0.013884,0.025643,7.1777e-07,0.32,0.56,0
0.01707,-0.00044732,0.035858,0.0014682,0.011198,-0.00040057,0,0,0.032058,-0.012649,0,-0.0010415,0,0,0,0.035863,0.0014636,0.011198,-0.66724,0.016175,0.030712,9.9948e-07,0.36,0.56,0
0.018384,-0.00043848,0.037076,0.0012511,0.011498,4.7453e-05,0,0,0.033252,-0.013321,0,0.00012338,0,0,0,0.037076,0.001251,0.011498,0.075892,0.016609,0.031959,1.1138e-06,0.4,0.56,0
0.01973,-0.00046217,0.03702,0.00063029,0.011295,0.0003921,0,0,0.033442,-0.013864,0,0.0010195,0,0,0,0.037024,0.00062607,0.011295,0.61726,0.016315,0.032409,1.1309e-06,0.44,0.56,0
0.02106,-0.00052646,0.035762,-0.0004215,0.010602,0.000833,0,0,0.032708,-0.014331,0,0.0021658,0,0,0,0.035781,-0.00044067,0.010602,1.3181,0.015314,0.032155,1.0535e-06,0.48,0.56,0
0.022346,-0.00058993,0.030332,-0.0011625,0.0087507,0.00085103,0,0,0.038455,-0.017509,0,0.0040245,0,0,0,0.030375,-0.0012056,0.0087507,1.9409,0.01264,0.027965,7.9105e-07,0.52,0.56,0
0.02401,-0.00074695,0.037487,-0.0010809,0.010922,0.001639,0,0,0.04827,-0.021495,0,0.0067521,0,0,0,0.037568,-0.0011611,0.010922,2.6384,0.015776,0.034323,1.391e-06,0.56,0.56,0
0.026475,-0.0012779,0.032874,0.00057734,0.010035,0.0017436,0,0,0.059381,-0.024591,0,0.009067,0,0,0,0.032968,0.00048348,0.010035,3.0814,0.014496,0.028917,8.0046e-07,0.6,0.56,0
0.028761,-0.0017181,0.032071,0.001221,0.0099875,0.0016353,0,0,0.057416,-0.022793,0,0.0085038,0,0,0,0.032157,0.0011346,0.0099875,3.0259,0.014426,0.027679,7.2534e-07,0.64,0.56,0
0.031068,-0.0019357,0.032248,0.00077418,0.0099066,0.001735,0,0,0.058087,-0.023744,0,0.009022,0,0,0,0.032343,0.00067883,0.0099066,3.1458,0.014309,0.028206,7.5041e-07,0.68,0.56,0
0.033408,-0.0020429,0.032398,0.00033497,0.0098198,0.0015822,0,0,0.058703,-0.024661,0,0.0082275,0,0,0,0.032476,0.00025708,0.0098198,2.8183,0.014184,0.02866,7.7088e-07,0.72,0.56,0
0.035764,-0.0020954,0.032402,-7.991e-05,0.0096967,0.0013455,0,0,0.059034,-0.025419,0,0.0069968,0,0,0,0.032458,-0.00013555,0.0096967,2.368,0.014006,0.028958,7.7973e-07,0.76,0.56,0
0.03813,-0.0021189,0.032362,-0.00041338,0.0095847,0.0010931,0,0,0.059222,-0.025995,0,0.0056841,0,0,0,0.032399,-0.00044979,0.0095847,1.908,0.013845,0.029157,7.8337e-07,0.8,0.56,0
0.040502,-0.0021279,0.032306,-0.00066697,0.0094917,0.00084756,0,0,0.059317,-0.026412,0,0.0044073,0,0,0,0.032328,-0.00068875,0.0094917,1.4715,0.01371,0.029285,7.841e-07,0.84,0.56,0
0.042876,-0.00213,0.032249,-0.00085074,0.0094195,0.00061709,0,0,0.059357,-0.026703,0,0.0032089,0,0,0,0.032261,-0.00086224,0.0094195,1.0677,0.013606,0.029365,7.8345e-07,0.88,0.56,0
0.04525,-0.0021294,0.032203,-0.00097473,0.0093683,0.00040176,0,0,0.059369,-0.026892,0,0.0020891,0,0,0,0.032207,-0.00097959,0.0093683,0.69368,0.013532,0.029412,7.8239e-07,0.92,0.56,0
0.047625,-0.0021284,0.032172,-0.0010462,0.0093378,0.00019787,0,0,0.059369,-0.026999,0,0.0010289,0,0,0,0.032173,-0.0010474,0.0093378,0.34127,0.013488,0.029436,7.8154e-07,0.96,0.56,0
0.05,-0.002128,0.032162,-0.0010696,0.0093276,2.122e-06,0,0,0.059369,-0.027033,0,1.1035e-05,0,0,0,0.032162,-0.0010696,0.0093276,0.0036587,0.013473,0.029443,7.8122e-07,1,0.56,0
0,0,0.029526,0.012654,0.012654,-0.0024125,0,0,0.043868,2.1684e-19,0,-0.012545,0,0,0,0.029865,0.012316,0.012654,-7.9797,0.018278,0.017382,2.6938e-07,0,0.6,0
0.0017547,-0.00050181,0.029363,0.011151,0.012154,-0.0024511,0,0,0.044742,-0.0026084,0,-0.012746,0,0,0,0.029687,0.010827,0.012154,-7.5327,0.017556,0.018233,3.0574e-07,0.04,0.6,0
0.0035794,-0.00090219,0.029731,0.0099127,0.011893,-0.0023307,0,0,0.046378,-0.0051487,0,-0.01212,0,0,0,0.030001,0.0096423,0.011893,-6.618,0.017179,0.019332,3.5416e-07,0.08,0.6,0
0.0054649,-0.0012111,0.029961,0.0087551,0.011615,-0.0022618,0,0,0.0477,-0.0074354,0,-0.011761,0,0,0,0.0302,0.0085166,0.011615,-6.0208,0.016777,0.020312,3.9686e-07,0.12,0.6,0
0.0073954,-0.0014198,0.030022,0.0076947,0.011315,-0.0021387,0,0,0.048638,-0.0094127,0,-0.011121,0,0,0,0.030225,0.0074916,0.011315,-5.4227,0.016344,0.021083,4.2845e-07,0.16,0.6,0
0.009356,-0.001497,0.030088,0.0066467,0.01102,-0.0019527,0,0,0.049575,-0.011371,0,-0.010154,0,0,0,0.030249,0.0064852,0.01102,-4.7294,0.015918,0.021852,4.591e-07,0.2,0.6,0
0.011362,-0.0014444,0.029554,0.0046922,0.010274,-0.001738,0,0,0.050129,-0.014513,0,-0.0090375,0,0,0,0.029675,0.0045713,0.010274,-3.9794,0.01484,0.022794,4.8232e-07,0.24,0.6,0
0.013366,-0.0012432,0.029979,0.0031869,0.0099498,-0.0022898,0,0,0.052076,-0.017584,0,-0.011907,0,0,0,0.030173,0.0029926,0.0099498,-4.85,0.014372,0.024456,5.5132e-07,0.28,0.6,0
0.015527,-0.0010359,0.03344,0.0017609,0.01056,-0.0021853,0,0,0.041712,-0.015613,0,-0.0086036,0,0,0,0.033599,0.0016017,0.01056,-4.1374,0.015254,0.028594,9.0329e-07,0.32,0.6,0
0.01695,-0.00096466,0.030012,0.0012713,0.009385,-0.0012505,0,0,0.035753,-0.014629,0,-0.0052741,0,0,0,0.030084,0.0011993,0.009385,-2.9301,0.013556,0.025794,7.8312e-07,0.36,0.6,0
0.018388,-0.00099272,0.0302,0.00080225,0.0093008,-0.00030076,0,0,0.036226,-0.015168,0,-0.0011462,0,0,0,0.030204,0.00079898,0.0093008,-0.6348,0.013434,0.026214,8.1048e-07,0.4,0.6,0
0.019848,-0.0010387,0.030211,0.00023227,0.0091329,0.00077313,0,0,0.036535,-0.015935,0,0.0032634,0,0,0,0.030237,0.00020561,0.0091329,1.7516,0.013192,0.026718,8.3086e-07,0.44,0.6,0
0.021311,-0.0011078,0.03017,-0.00040756,0.0089287,0.0015822,0,0,0.036818,-0.017007,0,0.0069067,0,0,0,0.030288,-0.00052617,0.0089287,3.5421,0.012897,0.027359,8.5154e-07,0.48,0.6,0
0.022793,-0.0013294,0.033433,-0.0017309,0.0095108,0.0022476,0,0,0.043667,-0.019985,0,0.0088706,0,0,0,0.033586,-0.0018832,0.0095108,3.8421,0.013738,0.031369,9.984e-07,0.52,0.6,0
0.025068,-0.0017724,0.030134,-0.00061628,0.0088554,0.0021177,0,0,0.055325,-0.024626,0,0.011012,0,0,0,0.03028,-0.00076143,0.0088554,3.9211,0.012791,0.027523,6.4679e-07,0.56,0.6,0
0.027219,-0.0022451,0.029851,0.00014004,0.0089974,0.0013661,0,0,0.05422,-0.023029,0,0.0071035,0,0,0,0.029914,7.7365e-05,0.0089974,2.6269,0.012996,0.026526,6.0599e-07,0.6,0.6,0
0.029406,-0.0026023,0.030552,0.0010613,0.009484,0.0014253,0,0,0.054777,-0.021899,0,0.0074116,0,0,0,0.030621,0.00099258,0.009484,2.7606,0.013699,0.026426,6.284e-07,0.64,0.6,0
0.031601,-0.0028529,0.030783,0.00086644,0.0094947,0.0014869,0,0,0.055348,-0.022433,0,0.0077319,0,0,0,0.030856,0.00079272,0.0094947,2.8384,0.013715,0.026794,6.4809e-07,0.68,0.6,0
0.033834,-0.0030006,0.031108,0.00049091,0.0094797,0.0014437,0,0,0.056234,-0.023371,0,0.0075073,0,0,0,0.031176,0.00042299,0.0094797,2.6938,0.013693,0.027372,6.7773e-07,0.72,0.6,0
0.0361,-0.0030868,0.031352,0.00012668,0.0094435,0.0012856,0,0,0.056961,-0.024224,0,0.0066849,0,0,0,0.031404,7.3841e-05,0.0094435,2.3536,0.013641,0.027854,7.0133e-07,0.76,0.6,0
0.038391,-0.0031366,0.031495,-0.00019212,0.0093909,0.0010793,0,0,0.057471,-0.024916,0,0.0056123,0,0,0,0.031532,-0.00022884,0.0093909,1.9485,0.013565,0.028209,7.1719e-07,0.8,0.6,0
0.040698,-0.003165,0.031574,-0.00044796,0.0093378,0.00085779,0,0,0.057814,-0.025443,0,0.0044605,0,0,0,0.031597,-0.00047093,0.0093378,1.5333,0.013488,0.028461,7.2739e-07,0.84,0.6,0
0.043016,-0.0031809,0.031613,-0.00064026,0.009292,0.00063594,0,0,0.058036,-0.025824,0,0.0033069,0,0,0,0.031626,-0.00065279,0.009292,1.1291,0.013422,0.028632,7.3365e-07,0.88,0.6,0
0.04534,-0.0031895,0.031631,-0.00077303,0.0092574,0.00041921,0,0,0.058171,-0.026079,0,0.0021799,0,0,0,0.031636,-0.00077845,0.0092574,0.74107,0.013372,0.028742,7.3729e-07,0.92,0.6,0
0.047669,-0.0031936,0.031637,-0.00085066,0.009236,0.00020797,0,0,0.058243,-0.026225,0,0.0010814,0,0,0,0.031639,-0.00085199,0.009236,0.36675,0.013341,0.028804,7.3915e-07,0.96,0.6,0
0.05,-0.0031949,0.031639,-0.00087619,0.0092288,-5.925e-06,0,0,0.058266,-0.026273,0,-3.081e-05,0,0,0,0.031639,-0.00087619,0.0092288,-0.010441,0.013331,0.028823,7.3972e-07,1,0.6,0
0,0,0.028601,0.012257,0.012257,-0.0028674,0,0,0.042493,3.2526e-19,0,-0.014911,0,0,0,0.029089,0.011769,0.012257,-9.668,0.017705,0.017081,2.5526e-07,0,0.64,0
0.0016997,-0.00059643,0.028464,0.010966,0.011829,-0.0028615,0,0,0.043251,-0.0022444,0,-0.01488,0,0,0,0.02892,0.01051,0.011829,-9.0554,0.017086,0.017788,2.8369e-07,0.04,0.64,0
0.0034601,-0.0010932,0.028753,0.0097825,0.011561,-0.0026446,0,0,0.0447,-0.0046231,0,-0.013752,0,0,0,0.029115,0.0094208,0.011561,-7.7897,0.016699,0.018716,3.2192e-07,0.08,0.64,0
0.0052757,-0.0014915,0.028928,0.0086086,0.011261,-0.0024122,0,0,0.045935,-0.0068965,0,-0.012543,0,0,0,0.029211,0.0083262,0.011261,-6.6779,0.016266,0.019583,3.5667e-07,0.12,0.64,0
0.0071349,-0.0017802,0.028972,0.0074629,0.01093,-0.0021152,0,0,0.046908,-0.0090158,0,-0.010999,0,0,0,0.029178,0.0072568,0.01093,-5.5635,0.015789,0.020335,3.8479e-07,0.16,0.64,0
0.0090284,-0.0019476,0.028783,0.006167,0.010485,-0.0017473,0,0,0.047576,-0.011227,0,-0.0090858,0,0,0,0.028918,0.0060328,0.010485,-4.3917,0.015145,0.021015,4.055e-07,0.2,0.64,0
0.010941,-0.0019834,0.028449,0.0047626,0.0099635,-0.001474,0,0,0.048062,-0.013522,0,-0.0076647,0,0,0,0.02854,0.0046712,0.0099635,-3.5472,0.014392,0.021712,4.2227e-07,0.24,0.64,0
0.012873,-0.0019215,0.027196,0.0027446,0.0089821,-0.001217,0,0,0.047355,-0.016217,0,-0.0063287,0,0,0,0.027256,0.0026841,0.0089821,-2.8425,0.012974,0.022106,4.0678e-07,0.28,0.64,0
0.014729,-0.0017469,0.026174,0.0012808,0.0082365,-0.0016142,0,0,0.046638,-0.018085,0,-0.0083939,0,0,0,0.026278,0.0011766,0.0082365,-3.6947,0.011897,0.022422,3.9133e-07,0.32,0.64,0
0.016604,-0.0016176,0.025291,0.0007233,0.0078042,-0.00088244,0,0,0.045465,-0.01841,0,-0.0045887,0,0,0,0.025322,0.00069165,0.0078042,-2.0545,0.011273,0.021956,3.5752e-07,0.36,0.64,0
0.018367,-0.0016519,0.02413,0.00019238,0.0072968,-0.00018767,0,0,0.043767,-0.018471,0,-0.00097587,0,0,0,0.024132,0.00019091,0.0072968,-0.44915,0.01054,0.021296,3.1629e-07,0.4,0.64,0
0.020106,-0.001737,0.024146,-0.00033066,0.0071445,0.00068273,0,0,0.044203,-0.019436,0,0.0035502,0,0,0,0.024165,-0.00034969,0.0071445,1.5965,0.01032,0.021758,3.2522e-07,0.44,0.64,0
0.021903,-0.0018871,0.025323,-0.00091606,0.0073221,0.0012436,0,0,0.046802,-0.021419,0,0.0064667,0,0,0,0.025382,-0.00097487,0.0073221,2.7074,0.010576,0.023342,3.8589e-07,0.48,0.64,0
0.02385,-0.0022487,0.026221,-0.0013847,0.0074508,0.0017127,0,0,0.048802,-0.022972,0,0.0089059,0,0,0,0.026327,-0.0014905,0.0074508,3.5366,0.010762,0.024597,4.3787e-07,0.52,0.64,0
0.025807,-0.0027171,0.027328,-0.00070219,0.0079879,0.00099239,0,0,0.050285,-0.022594,0,0.0051604,0,0,0,0.027363,-0.00073728,0.0079879,2.0251,0.011538,0.024912,4.7819e-07,0.56,0.64,0
0.027873,-0.0031203,0.028706,0.00040294,0.0087326,0.00096422,0,0,0.05193,-0.021657,0,0.0050139,0,0,0,0.028739,0.00037013,0.0087326,1.9489,0.012614,0.025248,5.3128e-07,0.6,0.64,0
0.029961,-0.00347,0.029257,0.00076707,0.0090072,0.00098072,0,0,0.05265,-0.021424,0,0.0050997,0,0,0,0.029291,0.00073335,0.0090072,1.9692,0.01301,0.02545,5.5479e-07,0.64,0.64,0
0.032085,-0.0037304,0.029754,0.00082488,0.0091737,0.001097,0,0,0.053509,-0.021707,0,0.0057042,0,0,0,0.029796,0.00078335,0.0091737,2.1684,0.013251,0.025859,5.8313e-07,0.68,0.64,0
0.034242,-0.0039126,0.030127,0.00058146,0.0092125,0.001132,0,0,0.054378,-0.022441,0,0.0058867,0,0,0,0.03017,0.00053815,0.0092125,2.191,0.013307,0.026387,6.1129e-07,0.72,0.64,0
0.036435,-0.0040333,0.030446,0.00027835,0.0092172,0.0010728,0,0,0.055194,-0.023241,0,0.0055786,0,0,0,0.030484,0.00024024,0.0092172,2.0341,0.013314,0.026903,6.3759e-07,0.76,0.64,0
0.038658,-0.0041122,0.030684,-8.2734e-06,0.0092027,0.00094313,0,0,0.055851,-0.023949,0,0.0049043,0,0,0,0.030713,-3.7228e-05,0.0092027,1.7584,0.013293,0.027328,6.5852e-07,0.8,0.64,0
0.040903,-0.0041633,0.030848,-0.00025131,0.0091789,0.00077504,0,0,0.056339,-0.024519,0,0.0040302,0,0,0,0.030867,-0.00027062,0.0091789,1.4267,0.013258,0.027652,6.7385e-07,0.84,0.64,0
0.043165,-0.0041959,0.030955,-0.00044073,0.0091542,0.00058842,0,0,0.056682,-0.024947,0,0.0030598,0,0,0,0.030966,-0.00045175,0.0091542,1.0733,0.013223,0.027884,6.8444e-07,0.88,0.64,0
0.045437,-0.0042158,0.03102,-0.00057469,0.0091337,0.00039412,0,0,0.056905,-0.025242,0,0.0020494,0,0,0,0.031025,-0.0005796,0.0091337,0.71458,0.013193,0.02804,6.9127e-07,0.92,0.64,0
0.047717,-0.0042264,0.031055,-0.00065417,0.0091203,0.00019733,0,0,0.057031,-0.025414,0,0.0010261,0,0,0,0.031057,-0.0006554,0.0091203,0.35654,0.013174,0.028128,6.9505e-07,0.96,0.64,0
0.05,-0.0042298,0.031066,-0.00068048,0.0091157,-1.62e-05,0,0,0.057071,-0.02547,0,-8.424e-05,0,0,0,0.031066,-0.00068049,0.0091157,-0.029237,0.013167,0.028157,6.9627e-07,1,0.64,0
0,0,0.027892,0.011954,0.011954,-0.0032758,0,0,0.041439,0,0,-0.017034,0,0,0,0.028539,0.011307,0.011954,-11.173,0.017266,0.016918,2.4747e-07,0,0.68,0
0.0016576,-0.00068136,0.027774,0.01073,0.011551,-0.0032242,0,0,0.042179,-0.0021355,0,-0.016766,0,0,0,0.028363,0.01014,0.011551,-10.362,0.016685,0.01756,2.7207e-07,0.04,0.68,0
0.0033743,-0.001272,0.028058,0.0095264,0.011275,-0.0029231,0,0,0.043636,-0.0045474,0,-0.0152,0,0,0,0.028508,0.0090763,0.011275,-8.7543,0.016287,0.018431,3.062e-07,0.08,0.68,0
0.0051484,-0.0017628,0.028255,0.008281,0.010961,-0.0025465,0,0,0.044966,-0.0069677,0,-0.013242,0,0,0,0.028575,0.0079615,0.010961,-7.1521,0.015832,0.019289,3.3877e-07,0.12,0.68,0
0.0069716,-0.002141,0.028311,0.0070211,0.010599,-0.0020793,0,0,0.046049,-0.009304,0,-0.010812,0,0,0,0.028512,0.0068199,0.010599,-5.5263,0.01531,0.020071,3.6612e-07,0.16,0.68,0
0.0088323,-0.0023952,0.028219,0.0057389,0.010187,-0.001557,0,0,0.046883,-0.011566,0,-0.0080962,0,0,0,0.028327,0.0056315,0.010187,-3.9431,0.014715,0.020795,3.8816e-07,0.2,0.68,0
0.010722,-0.0025262,0.02789,0.0043225,0.0096639,-0.0010112,0,0,0.047389,-0.013888,0,-0.0052585,0,0,0,0.027934,0.0042792,0.0096639,-2.4524,0.013959,0.021475,4.0284e-07,0.24,0.68,0
0.012623,-0.0025406,0.027585,0.002988,0.0091718,-0.000553,0,0,0.047874,-0.016078,0,-0.0028756,0,0,0,0.027597,0.0029755,0.0091718,-1.2873,0.013248,0.022182,4.1662e-07,0.28,0.68,0
0.014552,-0.0024826,0.027077,0.0012556,0.0084998,-0.000146,0,0,0.048301,-0.018835,0,-0.00075919,0,0,0,0.027078,0.0012548,0.0084998,-0.32394,0.012278,0.02307,4.2732e-07,0.32,0.68,0
0.016487,-0.0024375,0.026585,-0.00010078,0.0079451,-7.1145e-05,0,0,0.048463,-0.020919,0,-0.00036995,0,0,0,0.026585,-0.00010097,0.0079451,-0.15275,0.011476,0.02371,4.2826e-07,0.36,0.68,0
0.018429,-0.0024704,0.026434,-0.00048865,0.0077836,0.00013455,0,0,0.048491,-0.021508,0,0.00069964,0,0,0,0.026435,-0.00048932,0.0077836,0.28633,0.011243,0.023887,4.2751e-07,0.4,0.68,0
0.020367,-0.0025935,0.026444,-0.00096661,0.0076433,0.00036761,0,0,0.048883,-0.022386,0,0.0019116,0,0,0,0.026449,-0.00097154,0.0076433,0.76821,0.01104,0.024288,4.3596e-07,0.44,0.68,0
0.02234,-0.0028213,0.026601,-0.0015328,0.0075205,0.00041453,0,0,0.04961,-0.023539,0,0.0021555,0,0,0,0.026607,-0.0015389,0.0075205,0.84396,0.010863,0.024886,4.5251e-07,0.48,0.68,0
0.024336,-0.0031671,0.02711,-0.0010512,0.0078176,0.00020042,0,0,0.05016,-0.023059,0,0.0010422,0,0,0,0.027111,-0.0010526,0.0078176,0.40775,0.011292,0.024941,4.7046e-07,0.52,0.68,0
0.026353,-0.0035799,0.027675,-0.00013086,0.0082632,0.00026394,0,0,0.05047,-0.021824,0,0.0013725,0,0,0,0.027677,-0.00013336,0.0082632,0.54381,0.011936,0.024707,4.8377e-07,0.56,0.68,0
0.028373,-0.0039777,0.028087,0.00029032,0.0085132,0.00036161,0,0,0.050892,-0.021379,0,0.0018804,0,0,0,0.028092,0.00028562,0.0085132,0.7452,0.012297,0.02474,4.977e-07,0.6,0.68,0
0.030424,-0.0043162,0.028622,0.00064735,0.0087809,0.00053613,0,0,0.051587,-0.021147,0,0.0027879,0,0,0,0.028633,0.00063708,0.0087809,1.0975,0.012684,0.024941,5.1988e-07,0.64,0.68,0
0.0325,-0.0045894,0.029034,0.00069995,0.0089201,0.0006849,0,0,0.052295,-0.021372,0,0.0035615,0,0,0,0.02905,0.0006834,0.0089201,1.3839,0.012885,0.025276,5.4218e-07,0.68,0.68,0
0.034607,-0.0047958,0.029407,0.00057626,0.0089949,0.00078172,0,0,0.053071,-0.021889,0,0.0040649,0,0,0,0.029428,0.00055508,0.0089949,1.552,0.012993,0.025714,5.6661e-07,0.72,0.68,0
0.036746,-0.004946,0.029722,0.00035454,0.0090231,0.00079698,0,0,0.053818,-0.022538,0,0.0041443,0,0,0,0.029744,0.00033293,0.0090231,1.5534,0.013033,0.026171,5.9012e-07,0.76,0.68,0
0.038913,-0.0050525,0.029981,0.00011735,0.0090295,0.00074127,0,0,0.054474,-0.023172,0,0.0038546,0,0,0,0.029999,9.896e-05,0.0090295,1.421,0.013043,0.026585,6.1072e-07,0.8,0.68,0
0.041104,-0.0051265,0.030178,-9.7125e-05,0.0090242,0.00063465,0,0,0.054999,-0.023716,0,0.0033002,0,0,0,0.030191,-0.00011042,0.0090242,1.2004,0.013035,0.026923,6.2716e-07,0.84,0.68,0
0.043313,-0.0051767,0.030318,-0.00027131,0.0090141,0.00049605,0,0,0.055391,-0.024142,0,0.0025795,0,0,0,0.030326,-0.00027935,0.0090141,0.9288,0.01302,0.027178,6.3935e-07,0.88,0.68,0
0.045535,-0.0052088,0.030411,-0.0003978,0.0090039,0.00033877,0,0,0.055658,-0.024444,0,0.0017616,0,0,0,0.030414,-0.00040152,0.0090039,0.62993,0.013006,0.027354,6.476e-07,0.92,0.68,0
0.047766,-0.0052267,0.030463,-0.00047406,0.0089966,0.00017152,0,0,0.055812,-0.024624,0,0.00089192,0,0,0,0.030464,-0.00047501,0.0089966,0.31765,0.012995,0.027457,6.5236e-07,0.96,0.68,0
0.05,-0.0052325,0.03048,-0.0004995,0.008994,-2.7632e-05,0,0,0.055862,-0.024683,0,-0.00014368,0,0,0,0.03048,-0.00049952,0.008994,-0.051105,0.012991,0.027491,6.5391e-07,1,0.68,0
0,0,0.027436,0.011758,0.011758,-0.0036888,0,0,0.040761,1.0842e-18,0,-0.019182,0,0,0,0.02826,0.010934,0.011758,-12.601,0.016984,0.016929,2.4721e-07,0,0.72,0
0.0016305,-0.00076727,0.027321,0.010454,0.011333,-0.0035962,0,0,0.041569,-0.0022833,0,-0.0187,0,0,0,0.028055,0.0097196,0.011333,-11.547,0.016369,0.017585,2.7138e-07,0.04,0.72,0
0.0033255,-0.001457,0.027649,0.0091478,0.011039,-0.003228,0,0,0.043187,-0.0049175,0,-0.016786,0,0,0,0.028196,0.0086008,0.011039,-9.6181,0.015945,0.018497,3.0609e-07,0.08,0.72,0
0.0050854,-0.0020489,0.027901,0.0077839,0.010706,-0.0027224,0,0,0.044709,-0.0075963,0,-0.014156,0,0,0,0.028263,0.007422,0.010706,-7.5721,0.015464,0.019409,3.3957e-07,0.12,0.72,0
0.0069023,-0.0025245,0.028038,0.0064406,0.010344,-0.0021055,0,0,0.046006,-0.010148,0,-0.010948,0,0,0,0.028241,0.0062373,0.010344,-5.5164,0.014941,0.020265,3.6899e-07,0.16,0.72,0
0.0087658,-0.0028729,0.028042,0.0051198,0.0099485,-0.0014267,0,0,0.047043,-0.012555,0,-0.0074189,0,0,0,0.02813,0.0050313,0.0099485,-3.548,0.01437,0.021075,3.9395e-07,0.2,0.72,0
0.010666,-0.0030944,0.027971,0.0038239,0.0095384,-0.00076209,0,0,0.047924,-0.014858,0,-0.0039628,0,0,0,0.027995,0.0037999,0.0095384,-1.8059,0.013778,0.021897,4.1696e-07,0.24,0.72,0
0.0126,-0.0032078,0.027835,0.0024504,0.0090856,-0.00018164,0,0,0.048749,-0.017252,0,-0.00094452,0,0,0,0.027836,0.0024491,0.0090856,-0.40995,0.013124,0.022805,4.3972e-07,0.28,0.72,0
0.014566,-0.0032537,0.027669,0.0010552,0.0086174,0.00017393,0,0,0.049535,-0.019662,0,0.00090441,0,0,0,0.027671,0.0010541,0.0086174,0.37441,0.012447,0.023756,4.6058e-07,0.32,0.72,0
0.016563,-0.0032912,0.027529,-7.7661e-05,0.0082353,0.00031477,0,0,0.050163,-0.021614,0,0.0016368,0,0,0,0.027532,-8.125e-05,0.0082353,0.65318,0.011895,0.024536,4.7528e-07,0.36,0.72,0
0.018579,-0.0033726,0.027462,-0.00077847,0.0080049,0.00029608,0,0,0.050587,-0.022837,0,0.0015396,0,0,0,0.027465,-0.00078157,0.0080049,0.60062,0.011563,0.025037,4.8423e-07,0.4,0.72,0
0.02061,-0.0035278,0.02745,-0.001178,0.0078817,0.00021197,0,0,0.050878,-0.023555,0,0.0011022,0,0,0,0.027452,-0.0011796,0.0078817,0.4242,0.011385,0.025346,4.9031e-07,0.44,0.72,0
0.022649,-0.0037701,0.027496,-0.0012649,0.0078694,3.3876e-05,0,0,0.051029,-0.023749,0,0.00017615,0,0,0,0.027496,-0.0012649,0.0078694,0.067485,0.011367,0.025454,4.9408e-07,0.48,0.72,0
0.024692,-0.0040935,0.027626,-0.00089826,0.0080184,-0.00011725,0,0,0.05098,-0.023183,0,-0.00060967,0,0,0,0.027627,-0.00089874,0.0080184,-0.2355,0.011582,0.025276,4.9481e-07,0.52,0.72,0
0.026727,-0.004463,0.027815,-0.00028424,0.0082592,-0.00014708,0,0,0.050845,-0.022213,0,-0.00076483,0,0,0,0.027816,-0.00028501,0.0082592,-0.2999,0.01193,0.024951,4.9387e-07,0.56,0.72,0
0.02876,-0.0048306,0.028037,0.00021305,0.0084749,-1.319e-05,0,0,0.050861,-0.021481,0,-6.8587e-05,0,0,0,0.028037,0.00021304,0.0084749,-0.027161,0.012242,0.02475,4.9619e-07,0.6,0.72,0
0.030796,-0.0051618,0.028291,0.00047236,0.0086291,0.00016363,0,0,0.051122,-0.021208,0,0.00085087,0,0,0,0.028292,0.0004714,0.0086291,0.33699,0.012464,0.024771,5.0477e-07,0.64,0.72,0
0.032849,-0.0054402,0.028593,0.00056753,0.0087482,0.00033641,0,0,0.051597,-0.02127,0,0.0017493,0,0,0,0.028597,0.00056349,0.0087482,0.68762,0.012636,0.024969,5.1948e-07,0.68,0.72,0
0.034924,-0.0056637,0.028885,0.0005087,0.008818,0.00046159,0,0,0.052174,-0.021604,0,0.0024003,0,0,0,0.028892,0.00050119,0.008818,0.93169,0.012737,0.02528,5.3715e-07,0.72,0.72,0
0.037023,-0.0058363,0.029157,0.00036314,0.008856,0.00052454,0,0,0.052782,-0.022081,0,0.0027276,0,0,0,0.029166,0.00035359,0.008856,1.0433,0.012792,0.025642,5.5583e-07,0.76,0.72,0
0.039147,-0.0059659,0.029392,0.00018303,0.0088726,0.00052444,0,0,0.053351,-0.022593,0,0.0027271,0,0,0,0.029402,0.00017361,0.0088726,1.0283,0.012816,0.025994,5.7331e-07,0.8,0.72,0
0.041291,-0.0060605,0.029584,7.4027e-06,0.0088773,0.00047253,0,0,0.053837,-0.023062,0,0.0024572,0,0,0,0.029591,-1.4488e-07,0.0088773,0.91509,0.012823,0.026301,5.8822e-07,0.84,0.72,0
0.043453,-0.0061272,0.029728,-0.00014192,0.0088759,0.00038272,0,0,0.054216,-0.023446,0,0.0019901,0,0,0,0.029733,-0.00014682,0.0088759,0.73395,0.012821,0.026545,5.9987e-07,0.88,0.72,0
0.045629,-0.0061713,0.029828,-0.00025353,0.0088723,0.00026761,0,0,0.054485,-0.023727,0,0.0013916,0,0,0,0.02983,-0.00025592,0.0088723,0.50966,0.012816,0.026718,6.0809e-07,0.92,0.72,0
0.047812,-0.0061963,0.029886,-0.000322,0.0088692,0.00013734,0,0,0.054644,-0.023897,0,0.00071414,0,0,0,0.029887,-0.00032262,0.0088692,0.26048,0.012811,0.026822,6.1294e-07,0.96,0.72,0
0.05,-0.0062045,0.029905,-0.00034502,0.008868,-3.9047e-05,0,0,0.054696,-0.023954,0,-0.00020305,0,0,0,0.029905,-0.00034507,0.008868,-0.073958,0.012809,0.026856,6.1455e-07,1,0.72,0
0,0,0.027236,0.011673,0.011673,-0.004154,0,0,0.040465,-3.2526e-19,0,-0.021601,0,0,0,0.028275,0.010633,0.011673,-14.047,0.01686,0.017146,2.5569e-07,0,0.76,0
0.0016186,-0.00086403,0.027105,0.01015,0.011177,-0.0040233,0,0,0.041414,-0.0026687,0,-0.020921,0,0,0,0.028012,0.009244,0.011177,-12.694,0.016144,0.01788,2.8203e-07,0.04,0.76,0
0.0033132,-0.0016654,0.027504,0.0086502,0.010846,-0.0035932,0,0,0.04331,-0.0057097,0,-0.018685,0,0,0,0.028165,0.0079886,0.010846,-10.433,0.015667,0.018911,3.2076e-07,0.08,0.76,0
0.0050834,-0.0023705,0.027825,0.0071278,0.010486,-0.0029605,0,0,0.045082,-0.0087309,0,-0.015395,0,0,0,0.02824,0.0067126,0.010486,-7.9824,0.015146,0.019911,3.5683e-07,0.12,0.76,0
0.0069197,-0.0029529,0.028028,0.0056966,0.010117,-0.0021957,0,0,0.046567,-0.011494,0,-0.011418,0,0,0,0.028242,0.0054828,0.010117,-5.5626,0.014614,0.020832,3.8797e-07,0.16,0.76,0
0.0088088,-0.0033995,0.028118,0.0043843,0.0097506,-0.001395,0,0,0.047754,-0.013952,0,-0.0072539,0,0,0,0.028199,0.0043026,0.0097506,-3.3523,0.014084,0.021692,4.1486e-07,0.2,0.76,0
0.01074,-0.0037148,0.028123,0.0031471,0.0093811,-0.00065351,0,0,0.04873,-0.016209,0,-0.0033983,0,0,0,0.02814,0.00313,0.0093811,-1.4978,0.013551,0.022545,4.3952e-07,0.24,0.76,0
0.012707,-0.0039207,0.028088,0.0019517,0.0090118,-6.8206e-05,0,0,0.049597,-0.018356,0,-0.00035467,0,0,0,0.028088,0.0019515,0.0090118,-0.14952,0.013017,0.023418,4.6312e-07,0.28,0.76,0
0.014708,-0.0040556,0.028035,0.00082828,0.0086589,0.00029679,0,0,0.050377,-0.02036,0,0.0015433,0,0,0,0.028038,0.00082504,0.0086589,0.62492,0.012507,0.024264,4.8413e-07,0.32,0.76,0
0.016737,-0.0041666,0.027988,-9.6838e-05,0.0083674,0.00042137,0,0,0.051014,-0.022007,0,0.0021911,0,0,0,0.027994,-0.00010316,0.0083674,0.85938,0.012086,0.024965,5e-07,0.36,0.76,0
0.018789,-0.0042974,0.027954,-0.00072369,0.0081691,0.00036245,0,0,0.051441,-0.023121,0,0.0018847,0,0,0,0.027959,-0.00072827,0.0081691,0.72399,0.0118,0.025433,5.0961e-07,0.4,0.76,0
0.020853,-0.004478,0.027923,-0.0010398,0.008065,0.00018492,0,0,0.051631,-0.023672,0,0.00096159,0,0,0,0.027924,-0.001041,0.008065,0.3658,0.011649,0.025654,5.133e-07,0.44,0.76,0
0.022919,-0.0047212,0.027897,-0.0010458,0.0080554,-3.0967e-05,0,0,0.051589,-0.023663,0,-0.00016103,0,0,0,0.027897,-0.0010458,0.0080554,-0.061302,0.011636,0.025634,5.1192e-07,0.48,0.76,0
0.02498,-0.0050218,0.027894,-0.00076491,0.0081387,-0.00020672,0,0,0.051363,-0.023149,0,-0.001075,0,0,0,0.027895,-0.0007664,0.0081387,-0.41326,0.011756,0.025408,5.0687e-07,0.52,0.76,0
0.027029,-0.005357,0.027925,-0.00033464,0.0082771,-0.00026481,0,0,0.051085,-0.022391,0,-0.001377,0,0,0,0.027928,-0.00033713,0.0082771,-0.53684,0.011956,0.025092,5.008e-07,0.56,0.76,0
0.029066,-0.0056961,0.027998,5.6895e-05,0.0084165,-0.00020538,0,0,0.050912,-0.021735,0,-0.001068,0,0,0,0.028,5.5386e-05,0.0084165,-0.42112,0.012157,0.024842,4.9725e-07,0.6,0.76,0
0.031101,-0.0060129,0.028126,0.00031438,0.0085322,-7.0415e-05,0,0,0.050944,-0.021366,0,-0.00036616,0,0,0,0.028126,0.00031421,0.0085322,-0.14506,0.012324,0.024749,4.99e-07,0.64,0.76,0
0.033142,-0.006291,0.0283,0.00042196,0.0086167,7.9336e-05,0,0,0.051178,-0.021306,0,0.00041255,0,0,0,0.028301,0.00042173,0.0086167,0.16305,0.012446,0.024818,5.0621e-07,0.68,0.76,0
0.035196,-0.0065242,0.028504,0.00041405,0.0086753,0.00020722,0,0,0.051554,-0.021479,0,0.0010775,0,0,0,0.028505,0.00041252,0.0086753,0.42265,0.012531,0.025007,5.1752e-07,0.72,0.76,0
0.037266,-0.0067126,0.028709,0.00032629,0.0087106,0.00029177,0,0,0.051996,-0.021799,0,0.0015172,0,0,0,0.028712,0.00032329,0.0087106,0.5889,0.012582,0.025262,5.3077e-07,0.76,0.76,0
0.039355,-0.0068599,0.0289,0.00019963,0.0087299,0.00032711,0,0,0.052442,-0.022179,0,0.001701,0,0,0,0.028904,0.0001959,0.0087299,0.65291,0.01261,0.025534,5.4415e-07,0.8,0.76,0
0.041462,-0.0069715,0.029063,6.5638e-05,0.0087387,0.00031663,0,0,0.052844,-0.02255,0,0.0016465,0,0,0,0.029067,6.2181e-05,0.0087387,0.62552,0.012623,0.025785,5.5621e-07,0.84,0.76,0
0.043583,-0.0070524,0.029192,-5.3896e-05,0.0087416,0.00026887,0,0,0.053172,-0.022868,0,0.0013981,0,0,0,0.029195,-5.6368e-05,0.0087416,0.52667,0.012627,0.025994,5.6607e-07,0.88,0.76,0
0.045715,-0.007107,0.029285,-0.00014596,0.0087416,0.00019381,0,0,0.053412,-0.023108,0,0.0010078,0,0,0,0.029286,-0.00014723,0.0087416,0.37728,0.012627,0.026148,5.7325e-07,0.92,0.76,0
0.047856,-0.0071385,0.02934,-0.00020343,0.0087408,0.00010118,0,0,0.053557,-0.023255,0,0.00052612,0,0,0,0.02934,-0.00020378,0.0087408,0.19622,0.012626,0.026241,5.7759e-07,0.96,0.76,0
0.05,-0.0071488,0.029358,-0.00022292,0.0087404,-4.9447e-05,0,0,0.053605,-0.023305,0,-0.00025712,0,0,0,0.029358,-0.000223,0.0087404,-0.095775,0.012625,0.026272,5.7905e-07,1,0.76,0
0,0,0.027297,0.011699,0.011699,-0.0047152,0,0,0.040556,-8.6736e-19,0,-0.024519,0,0,0,0.028612,0.010384,0.011699,-15.578,0.016898,0.017607,2.7507e-07,0,0.8,0
0.0016222,-0.00098076,0.027128,0.0098172,0.011084,-0.0045395,0,0,0.041716,-0.0032926,0,-0.023606,0,0,0,0.028246,0.008699,0.011084,-13.838,0.01601,0.018471,3.0554e-07,0.04,0.8,0
0.0033372,-0.0019138,0.027603,0.0080126,0.010685,-0.0040297,0,0,0.043988,-0.0069474,0,-0.020954,0,0,0,0.0284,0.0072161,0.010685,-11.181,0.015433,0.01968,3.5081e-07,0.08,0.8,0
0.0051412,-0.0027474,0.027973,0.0062867,0.010278,-0.0032388,0,0,0.046008,-0.010377,0,-0.016842,0,0,0,0.028447,0.0058134,0.010278,-8.3153,0.014846,0.020764,3.891e-07,0.12,0.8,0
0.0070179,-0.003444,0.028197,0.0047963,0.0098981,-0.0023091,0,0,0.047578,-0.013265,0,-0.012008,0,0,0,0.028423,0.0045706,0.0098981,-5.5821,0.014297,0.021685,4.1908e-07,0.16,0.8,0
0.0089475,-0.0039891,0.028283,0.0035399,0.0095469,-0.0013899,0,0,0.048714,-0.015618,0,-0.0072277,0,0,0,0.028361,0.003462,0.0095469,-3.2051,0.01379,0.022483,4.4273e-07,0.2,0.8,0
0.010915,-0.0043911,0.02828,0.0024499,0.009219,-0.00059862,0,0,0.049559,-0.0176,0,-0.0031128,0,0,0,0.028294,0.002436,0.009219,-1.3269,0.013316,0.023222,4.6296e-07,0.24,0.8,0
0.012912,-0.0046763,0.028239,0.0014689,0.0089123,-8.3498e-06,0,0,0.050249,-0.019353,0,-4.3419e-05,0,0,0,0.028239,0.0014689,0.0089123,-0.017871,0.012873,0.023933,4.8127e-07,0.28,0.8,0
0.014935,-0.0048825,0.028194,0.00060052,0.0086383,0.00034369,0,0,0.050844,-0.020898,0,0.0017872,0,0,0,0.028198,0.00059623,0.0086383,0.71351,0.012478,0.024588,4.972e-07,0.32,0.8,0
0.01698,-0.0050517,0.028155,-0.00010366,0.0084154,0.00046474,0,0,0.051323,-0.02215,0,0.0024166,0,0,0,0.028163,-0.0001113,0.0084154,0.94194,0.012156,0.02512,5.0921e-07,0.36,0.8,0
0.019041,-0.0052223,0.028118,-0.00058709,0.0082594,0.0003991,0,0,0.051633,-0.023001,0,0.0020753,0,0,0,0.028124,-0.00059263,0.0082594,0.7964,0.01193,0.025472,5.1615e-07,0.4,0.8,0
0.02111,-0.0054216,0.028074,-0.00082455,0.008175,0.00021844,0,0,0.051739,-0.023399,0,0.0011359,0,0,0,0.028076,-0.0008262,0.008175,0.43305,0.011808,0.025617,5.1778e-07,0.44,0.8,0
0.02318,-0.0056632,0.028022,-0.00082252,0.0081598,-2.8814e-07,0,0,0.051641,-0.023354,0,-1.4983e-06,0,0,0,0.028022,-0.00082252,0.0081598,-0.00057236,0.011786,0.025565,5.1475e-07,0.48,0.8,0
0.025242,-0.0059454,0.027971,-0.00062582,0.0082036,-0.00018153,0,0,0.051396,-0.022957,0,-0.00094396,0,0,0,0.027972,-0.00062697,0.0082036,-0.36369,0.01185,0.025364,5.0853e-07,0.52,0.8,0
0.027291,-0.0062543,0.027939,-0.00032724,0.0082834,-0.00027606,0,0,0.051104,-0.022388,0,-0.0014355,0,0,0,0.027941,-0.00032993,0.0082834,-0.5595,0.011965,0.025099,5.0141e-07,0.56,0.8,0
0.02933,-0.0065694,0.02794,-3.4195e-05,0.0083719,-0.00027197,0,0,0.050878,-0.021856,0,-0.0014142,0,0,0,0.027943,-3.6839e-05,0.0083719,-0.55696,0.012093,0.024866,4.96e-07,0.6,0.8,0
0.031362,-0.0068711,0.027987,0.00017946,0.0084498,-0.0001953,0,0,0.050796,-0.021503,0,-0.0010156,0,0,0,0.027988,0.00017809,0.0084498,-0.40238,0.012205,0.024734,4.9427e-07,0.64,0.8,0
0.033394,-0.0071447,0.028078,0.00029128,0.0085106,-8.4072e-05,0,0,0.050874,-0.02137,0,-0.00043717,0,0,0,0.028078,0.00029102,0.0085106,-0.17336,0.012293,0.024724,4.9686e-07,0.68,0.8,0
0.035432,-0.007382,0.028201,0.00031111,0.0085536,2.6597e-05,0,0,0.051083,-0.021431,0,0.0001383,0,0,0,0.028201,0.00031109,0.0085536,0.054639,0.012355,0.024817,5.0306e-07,0.72,0.8,0
0.03748,-0.0075803,0.028341,0.0002655,0.0085818,0.00011424,0,0,0.051373,-0.021622,0,0.00059406,0,0,0,0.028341,0.00026503,0.0085818,0.23314,0.012396,0.024979,5.1153e-07,0.76,0.8,0
0.039541,-0.0077402,0.028479,0.0001824,0.0085984,0.00016762,0,0,0.051689,-0.021882,0,0.00087162,0,0,0,0.02848,0.0001814,0.0085984,0.33939,0.01242,0.025169,5.208e-07,0.8,0.8,0
0.041615,-0.0078645,0.028604,8.6872e-05,0.0086072,0.00018461,0,0,0.051991,-0.022153,0,0.00095995,0,0,0,0.028605,8.5677e-05,0.0086072,0.37088,0.012433,0.025356,5.2964e-07,0.84,0.8,0
0.043701,-0.0079567,0.028707,-2.4873e-06,0.0086113,0.00016886,0,0,0.052248,-0.022396,0,0.00087807,0,0,0,0.028708,-3.4804e-06,0.0086113,0.33698,0.012438,0.025519,5.3715e-07,0.88,0.8,0
0.045795,-0.0080199,0.028782,-7.3314e-05,0.0086127,0.00012725,0,0,0.052441,-0.022584,0,0.0006617,0,0,0,0.028783,-7.3875e-05,0.0086127,0.25266,0.012441,0.025642,5.428e-07,0.92,0.8,0
0.047896,-0.0080567,0.028828,-0.00011828,0.008613,6.8048e-05,0,0,0.05256,-0.022701,0,0.00035385,0,0,0,0.028828,-0.00011844,0.008613,0.13469,0.012441,0.025718,5.4627e-07,0.96,0.8,0
0.05,-0.0080689,0.028844,-0.00013364,0.008613,-5.815e-05,0,0,0.0526,-0.022741,0,-0.00030238,0,0,0,0.028844,-0.00013376,0.008613,-0.11498,0.012441,0.025744,5.4745e-07,1,0.8,0
0,0,0.027663,0.011855,0.011855,-0.0054204,0,0,0.041099,8.6736e-19,0,-0.028186,0,0,0,0.029343,0.010175,0.011855,-17.221,0.017125,0.018385,3.102e-07,0,0.84,0
0.001644,-0.0011274,0.027414,0.0094228,0.011051,-0.0051719,0,0,0.042543,-0.0042332,0,-0.026894,0,0,0,0.028795,0.008042,0.011051,-14.948,0.015963,0.019424,3.4612e-07,0.04,0.84,0
0.0034035,-0.0022212,0.027945,0.0071552,0.01053,-0.0045134,0,0,0.045279,-0.0087745,0,-0.02347,0,0,0,0.028882,0.0062176,0.01053,-11.735,0.01521,0.020846,3.9896e-07,0.08,0.84,0
0.0052663,-0.0032007,0.028312,0.0052077,0.010056,-0.0034871,0,0,0.047467,-0.012606,0,-0.018133,0,0,0,0.028827,0.0046929,0.010056,-8.3983,0.014525,0.02195,4.3577e-07,0.12,0.84,0
0.0072008,-0.004014,0.028465,0.003736,0.0096604,-0.0023491,0,0,0.048893,-0.015404,0,-0.012215,0,0,0,0.028687,0.0035148,0.0096604,-5.3785,0.013954,0.022731,4.5784e-07,0.16,0.84,0
0.0091777,-0.004649,0.028449,0.0026394,0.0093264,-0.0013202,0,0,0.049718,-0.017386,0,-0.006865,0,0,0,0.028516,0.002572,0.0093264,-2.9206,0.013471,0.023312,4.7127e-07,0.2,0.84,0
0.011178,-0.0051228,0.028346,0.0017603,0.009032,-0.00050338,0,0,0.050217,-0.018906,0,-0.0026176,0,0,0,0.028356,0.0017508,0.009032,-1.0843,0.013046,0.023814,4.8131e-07,0.24,0.84,0
0.013195,-0.0054689,0.028239,0.0010197,0.0087777,6.621e-05,0,0,0.0506,-0.020171,0,0.00034429,0,0,0,0.02824,0.0010195,0.0087777,0.13937,0.012679,0.024289,4.9075e-07,0.28,0.84,0
0.015226,-0.0057274,0.028159,0.00039331,0.0085657,0.00039061,0,0,0.050943,-0.021248,0,0.0020312,0,0,0,0.028165,0.00038781,0.0085657,0.80583,0.012373,0.024724,4.9958e-07,0.32,0.84,0
0.017271,-0.0059386,0.028106,-0.00010273,0.008401,0.00049615,0,0,0.051233,-0.02211,0,0.00258,0,0,0,0.028115,-0.00011146,0.008401,1.0073,0.012135,0.025078,5.0662e-07,0.36,0.84,0
0.019325,-0.0061375,0.028066,-0.00044105,0.0082875,0.00043209,0,0,0.051425,-0.022694,0,0.0022469,0,0,0,0.028073,-0.0004476,0.0082875,0.86818,0.011971,0.02531,5.1068e-07,0.4,0.84,0
0.021384,-0.0063499,0.028025,-0.00060617,0.0082255,0.00026246,0,0,0.051478,-0.022962,0,0.0013648,0,0,0,0.028027,-0.00060857,0.0082255,0.52518,0.011881,0.025398,5.1116e-07,0.44,0.84,0
0.023443,-0.0065896,0.027974,-0.00060595,0.0082104,5.6557e-05,0,0,0.051385,-0.022922,0,0.0002941,0,0,0,0.027974,-0.00060606,0.0082104,0.11338,0.01186,0.025349,5.0825e-07,0.48,0.84,0
0.025495,-0.0068583,0.027918,-0.00047594,0.0082327,-0.00012466,0,0,0.051182,-0.022642,0,-0.00064821,0,0,0,0.027919,-0.00047649,0.0082327,-0.25153,0.011892,0.025196,5.029e-07,0.52,0.84,0
0.027538,-0.007148,0.027869,-0.00027558,0.0082779,-0.00023985,0,0,0.050936,-0.022239,0,-0.0012472,0,0,0,0.027871,-0.00027763,0.0082779,-0.48823,0.011957,0.024994,4.9667e-07,0.56,0.84,0
0.02957,-0.0074446,0.027839,-7.054e-05,0.0083306,-0.00027612,0,0,0.050722,-0.021843,0,-0.0014358,0,0,0,0.027842,-7.3272e-05,0.0083306,-0.56676,0.012033,0.024805,4.9132e-07,0.6,0.84,0
0.031595,-0.0077331,0.02784,9.0433e-05,0.0083791,-0.00024508,0,0,0.050598,-0.021551,0,-0.0012744,0,0,0,0.027842,8.8268e-05,0.0083791,-0.50597,0.012103,0.024676,4.8828e-07,0.64,0.84,0
0.033618,-0.0080007,0.027874,0.00018536,0.0084177,-0.00017248,0,0,0.050586,-0.021404,0,-0.00089688,0,0,0,0.027875,0.00018429,0.0084177,-0.35689,0.012159,0.024629,4.8817e-07,0.68,0.84,0
0.035642,-0.0082386,0.027936,0.00021578,0.0084456,-8.55e-05,0,0,0.050676,-0.021398,0,-0.0004446,0,0,0,0.027936,0.00021552,0.0084456,-0.17672,0.012199,0.024658,4.9083e-07,0.72,0.84,0
0.037672,-0.0084423,0.028017,0.00019618,0.008464,-5.8668e-06,0,0,0.050838,-0.021496,0,-3.0507e-05,0,0,0,0.028017,0.00019618,0.008464,-0.012082,0.012226,0.024746,4.9548e-07,0.76,0.84,0
0.039709,-0.0086105,0.028105,0.00014572,0.0084751,5.299e-05,0,0,0.051037,-0.021656,0,0.00027555,0,0,0,0.028105,0.00014562,0.0084751,0.10859,0.012242,0.024864,5.0114e-07,0.8,0.84,0
0.041755,-0.0087437,0.028189,8.2335e-05,0.0084813,8.5216e-05,0,0,0.051239,-0.021837,0,0.00044313,0,0,0,0.028189,8.2077e-05,0.0084813,0.17372,0.012251,0.024989,5.069e-07,0.84,0.84,0
0.043809,-0.008844,0.028261,2.0407e-05,0.0084843,9.0881e-05,0,0,0.051418,-0.022006,0,0.00047258,0,0,0,0.028261,2.0114e-05,0.0084843,0.18438,0.012255,0.025103,5.1201e-07,0.88,0.84,0
0.045868,-0.0089137,0.028315,-2.9951e-05,0.0084856,7.4039e-05,0,0,0.051557,-0.02214,0,0.00038501,0,0,0,0.028316,-3.0144e-05,0.0084856,0.14966,0.012257,0.025191,5.1596e-07,0.92,0.84,0
0.047933,-0.0089546,0.028349,-6.2396e-05,0.0084861,4.1163e-05,0,0,0.051644,-0.022226,0,0.00021405,0,0,0,0.028349,-6.2455e-05,0.0084861,0.08301,0.012258,0.025247,5.1844e-07,0.96,0.84,0
0.05,-0.0089681,0.028361,-7.3558e-05,0.0084861,-6.4819e-05,0,0,0.051674,-0.022255,0,-0.00033706,0,0,0,0.028361,-7.3706e-05,0.0084861,-0.13061,0.012258,0.025267,5.1929e-07,1,0.84,0
0,0,0.02847,0.012202,0.012202,-0.0063434,0,0,0.042299,4.3368e-19,0,-0.032986,0,0,0,0.030651,0.01002,0.012202,-18.974,0.017624,0.019631,3.7244e-07,0,0.88,0
0.0016919,-0.0013194,0.028061,0.0088588,0.011076,-0.0059155,0,0,0.044162,-0.0057649,0,-0.030761,0,0,0,0.029738,0.0071828,0.011076,-15.819,0.015999,0.020882,4.1341e-07,0.04,0.88,0
0.003533,-0.0026158,0.028563,0.0058855,0.010334,-0.0049584,0,0,0.047393,-0.011567,0,-0.025784,0,0,0,0.029599,0.0048488,0.010334,-11.81,0.014927,0.022515,4.7093e-07,0.08,0.88,0
0.0054834,-0.0037559,0.028804,0.0038115,0.0097845,-0.0035296,0,0,0.04945,-0.01553,0,-0.018354,0,0,0,0.029293,0.0033226,0.0097845,-7.8863,0.014133,0.023418,4.9414e-07,0.12,0.88,0
0.0074889,-0.0046763,0.028745,0.0025905,0.0094006,-0.0021761,0,0,0.050295,-0.017706,0,-0.011315,0,0,0,0.028925,0.0024106,0.0094006,-4.7237,0.013579,0.023802,4.9649e-07,0.16,0.88,0
0.009507,-0.00538,0.028474,0.0017506,0.0090674,-0.0010988,0,0,0.050457,-0.019024,0,-0.0057139,0,0,0,0.028519,0.0017055,0.0090674,-2.3506,0.013097,0.023995,4.9089e-07,0.2,0.88,0
0.011525,-0.0059036,0.028212,0.0011276,0.0088019,-0.00032637,0,0,0.050467,-0.019953,0,-0.0016971,0,0,0,0.028216,0.0011236,0.0088019,-0.69027,0.012714,0.024185,4.8735e-07,0.24,0.88,0
0.013544,-0.00629,0.028027,0.00062949,0.008597,0.00017449,0,0,0.050519,-0.020716,0,0.00090736,0,0,0,0.028028,0.00062838,0.008597,0.36489,0.012418,0.024411,4.8757e-07,0.28,0.88,0
0.015567,-0.0065823,0.027924,0.00022367,0.0084443,0.00044101,0,0,0.050647,-0.021374,0,0.0022933,0,0,0,0.027931,0.00021665,0.0084443,0.9119,0.012197,0.024653,4.9051e-07,0.32,0.88,0
0.017596,-0.0068205,0.027879,-9.0795e-05,0.0083363,0.00051518,0,0,0.05081,-0.02191,0,0.0026789,0,0,0,0.027888,-0.00010028,0.0083363,1.0549,0.012041,0.024868,4.9427e-07,0.36,0.88,0
0.019632,-0.0070378,0.027862,-0.00030283,0.0082676,0.00044603,0,0,0.050944,-0.022283,0,0.0023194,0,0,0,0.027869,-0.00030989,0.0082676,0.90707,0.011942,0.025018,4.9715e-07,0.4,0.88,0
0.021672,-0.0072586,0.027849,-0.0004055,0.0082329,0.0002892,0,0,0.051,-0.02246,0,0.0015038,0,0,0,0.027851,-0.00040846,0.0082329,0.58637,0.011892,0.025082,4.9804e-07,0.44,0.88,0
0.023712,-0.007497,0.027825,-0.00040525,0.0082258,0.0001009,0,0,0.050957,-0.022441,0,0.00052468,0,0,0,0.027825,-0.00040561,0.0082258,0.20479,0.011882,0.025056,4.9659e-07,0.48,0.88,0
0.025748,-0.0077568,0.027788,-0.00032486,0.0082389,-7.0104e-05,0,0,0.050827,-0.022266,0,-0.00036454,0,0,0,0.027788,-0.00032504,0.0082389,-0.14288,0.011901,0.024958,4.9313e-07,0.52,0.88,0
0.027778,-0.0080334,0.027744,-0.00019977,0.0082632,-0.00019079,0,0,0.050649,-0.022004,0,-0.0009921,0,0,0,0.027745,-0.00020108,0.0082632,-0.39117,0.011936,0.024821,4.8858e-07,0.56,0.88,0
0.0298,-0.0083169,0.027703,-6.8295e-05,0.0082904,-0.00024788,0,0,0.050473,-0.021733,0,-0.001289,0,0,0,0.027705,-7.0507e-05,0.0082904,-0.51136,0.011975,0.024681,4.8408e-07,0.6,0.88,0
0.031816,-0.0085951,0.027676,3.9485e-05,0.0083148,-0.00024646,0,0,0.05034,-0.021516,0,-0.0012816,0,0,0,0.027679,3.7287e-05,0.0083148,-0.51091,0.01201,0.024571,4.8067e-07,0.64,0.88,0
0.033827,-0.008857,0.027669,0.00010799,0.0083333,-0.00020326,0,0,0.050274,-0.021386,0,-0.001057,0,0,0,0.027671,0.00010649,0.0083333,-0.42252,0.012037,0.02451,4.7898e-07,0.68,0.88,0
0.035838,-0.0090938,0.027683,0.00013546,0.0083456,-0.00013902,0,0,0.050278,-0.021347,0,-0.00072291,0,0,0,0.027684,0.00013475,0.0083456,-0.28913,0.012055,0.024498,4.7913e-07,0.72,0.88,0
0.03785,-0.0092999,0.027714,0.00012942,0.008353,-7.2337e-05,0,0,0.050339,-0.021381,0,-0.00037615,0,0,0,0.027714,0.00012923,0.008353,-0.15025,0.012065,0.02453,4.808e-07,0.76,0.88,0
0.039865,-0.0094727,0.027755,0.00010137,0.008357,-1.6583e-05,0,0,0.050435,-0.021465,0,-8.6232e-05,0,0,0,0.027755,0.00010136,0.008357,-0.034359,0.012071,0.024588,4.8347e-07,0.8,0.88,0
0.041884,-0.0096115,0.0278,6.3012e-05,0.0083588,2.0877e-05,0,0,0.050546,-0.021569,0,0.00010856,0,0,0,0.0278,6.2996e-05,0.0083588,0.043126,0.012074,0.024659,4.8653e-07,0.84,0.88,0
0.043909,-0.0097172,0.027841,2.4099e-05,0.0083595,3.7989e-05,0,0,0.050652,-0.021672,0,0.00019754,0,0,0,0.027841,2.4047e-05,0.0083595,0.078248,0.012075,0.024726,4.8944e-07,0.88,0.88,0
0.045937,-0.0097912,0.027874,-8.2046e-06,0.0083598,3.6762e-05,0,0,0.050737,-0.021757,0,0.00019116,0,0,0,0.027874,-8.2531e-06,0.0083598,0.075542,0.012075,0.024782,4.9181e-07,0.92,0.88,0
0.047968,-0.0098348,0.027896,-2.9262e-05,0.0083599,2.1962e-05,0,0,0.050793,-0.021812,0,0.0001142,0,0,0,0.027896,-2.928e-05,0.0083599,0.045062,0.012075,0.024817,4.9333e-07,0.96,0.88,0
0.05,-0.0098493,0.027903,-3.6546e-05,0.0083599,-6.941e-05,0,0,0.050812,-0.021831,0,-0.00036093,0,0,0,0.027903,-3.6719e-05,0.0083599,-0.14234,0.012075,0.02483,4.9387e-07,1,0.88,0
0,0,0.03027,0.012973,0.012973,-0.0076376,0,0,0.044972,-1.7347e-18,0,-0.039716,0,0,0,0.033159,0.010083,0.012973,-20.724,0.018738,0.021776,4.9898e-07,0,0.92,0
0.0017989,-0.0015886,0.029189,0.0075755,0.011029,-0.0067742,0,0,0.047215,-0.00898,0,-0.035226,0,0,0,0.031137,0.0056278,0.011029,-16.041,0.015931,0.023283,5.3249e-07,0.04,0.92,0
0.0037772,-0.0031466,0.029488,0.0037486,0.0099711,-0.0049241,0,0,0.050745,-0.016178,0,-0.025605,0,0,0,0.030398,0.0028388,0.0099711,-10.469,0.014403,0.024776,5.6836e-07,0.08,0.92,0
0.0058585,-0.0044431,0.029472,0.0023829,0.0095566,-0.0030583,0,0,0.051781,-0.018652,0,-0.015903,0,0,0,0.029813,0.0020419,0.0095566,-6.3618,0.013804,0.02488,5.5455e-07,0.12,0.92,0
0.0079197,-0.0054305,0.02874,0.001523,0.0090787,-0.0016464,0,0,0.051118,-0.019645,0,-0.0085613,0,0,0,0.028839,0.0014238,0.0090787,-3.4492,0.013114,0.024501,5.1429e-07,0.16,0.92,0
0.0099479,-0.0061709,0.028121,0.00098902,0.008733,-0.00070757,0,0,0.050409,-0.020134,0,-0.0036794,0,0,0,0.028139,0.00097059,0.008733,-1.4929,0.012614,0.024238,4.8648e-07,0.2,0.92,0
0.011952,-0.006719,0.027725,0.0006151,0.0085022,-9.5842e-05,0,0,0.04998,-0.020506,0,-0.00049838,0,0,0,0.027726,0.00061476,0.0085022,-0.20255,0.012281,0.024153,4.7208e-07,0.24,0.92,0
0.013946,-0.0071262,0.02753,0.00033026,0.0083582,0.0002712,0,0,0.049848,-0.020873,0,0.0014103,0,0,0,0.027533,0.00032756,0.0083582,0.5712,0.012073,0.024211,4.6771e-07,0.28,0.92,0
0.01594,-0.0074373,0.027476,0.00010521,0.0082743,0.00044925,0,0,0.049924,-0.02124,0,0.0023361,0,0,0,0.027483,9.7838e-05,0.0082743,0.9401,0.011952,0.024349,4.6944e-07,0.32,0.92,0
0.01794,-0.0076914,0.027502,-6.591e-05,0.0082307,0.00048082,0,0,0.050104,-0.021571,0,0.0025003,0,0,0,0.02751,-7.4293e-05,0.0082307,0.99894,0.011889,0.024511,4.7399e-07,0.36,0.92,0
0.019949,-0.0079201,0.027558,-0.00017992,0.0082135,0.00040695,0,0,0.050296,-0.021823,0,0.0021161,0,0,0,0.027564,-0.00018588,0.0082135,0.84035,0.011864,0.024648,4.7884e-07,0.4,0.92,0
0.021964,-0.0081466,0.02761,-0.00023437,0.0082127,0.00026998,0,0,0.050433,-0.021962,0,0.0014039,0,0,0,0.027613,-0.00023699,0.0082127,0.55546,0.011863,0.024732,4.8231e-07,0.44,0.92,0
0.023983,-0.0083848,0.027637,-0.00023336,0.0082212,0.00011134,0,0,0.050482,-0.021982,0,0.00057896,0,0,0,0.027638,-0.0002338,0.0082212,0.22888,0.011875,0.024752,4.8355e-07,0.48,0.92,0
0.026003,-0.0086396,0.027633,-0.00018921,0.0082331,-3.3596e-05,0,0,0.050439,-0.021898,0,-0.0001747,0,0,0,0.027633,-0.00018925,0.0082331,-0.069187,0.011892,0.024712,4.8248e-07,0.52,0.92,0
0.028018,-0.0089083,0.027601,-0.0001205,0.0082442,-0.00014045,0,0,0.050328,-0.021748,0,-0.00073032,0,0,0,0.027602,-0.00012122,0.0082442,-0.29027,0.011908,0.02463,4.7962e-07,0.56,0.92,0
0.030029,-0.0091832,0.027553,-4.7259e-05,0.0082518,-0.00019853,0,0,0.050184,-0.021578,0,-0.0010324,0,0,0,0.027555,-4.8687e-05,0.0082518,-0.4121,0.011919,0.02453,4.7584e-07,0.6,0.92,0
0.032033,-0.0094543,0.027502,1.4368e-05,0.0082549,-0.00020996,0,0,0.050042,-0.021425,0,-0.0010918,0,0,0,0.027504,1.2764e-05,0.0082549,-0.43762,0.011924,0.024435,4.7206e-07,0.64,0.92,0
0.034032,-0.0097115,0.027457,5.5288e-05,0.0082538,-0.00018581,0,0,0.04993,-0.021316,0,-0.00096622,0,0,0,0.027459,5.4028e-05,0.0082538,-0.38849,0.011922,0.024363,4.69e-07,0.68,0.92,0
0.036027,-0.0099463,0.027427,7.3686e-05,0.0082501,-0.00014104,0,0,0.049859,-0.021259,0,-0.00073341,0,0,0,0.027428,7.2958e-05,0.0082501,-0.29542,0.011917,0.02432,4.6705e-07,0.72,0.92,0
0.038021,-0.010153,0.027412,7.2995e-05,0.0082454,-9.012e-05,0,0,0.049832,-0.021248,0,-0.00046862,0,0,0,0.027412,7.2698e-05,0.0082454,-0.18887,0.01191,0.024306,4.6626e-07,0.76,0.92,0
0.040014,-0.010328,0.027411,5.9275e-05,0.008241,-4.4251e-05,0,0,0.049841,-0.021272,0,-0.00023011,0,0,0,0.027411,5.9203e-05,0.008241,-0.092697,0.011904,0.024316,4.6645e-07,0.8,0.92,0
0.042008,-0.010469,0.02742,3.9017e-05,0.0082376,-1.0285e-05,0,0,0.049874,-0.021316,0,-5.3481e-05,0,0,0,0.02742,3.9014e-05,0.0082376,-0.021521,0.011899,0.02434,4.6728e-07,0.84,0.92,0
0.044004,-0.010578,0.027434,1.7851e-05,0.0082355,9.1545e-06,0,0,0.049916,-0.021366,0,4.7603e-05,0,0,0,0.027434,1.7847e-05,0.0082355,0.019132,0.011896,0.024369,4.6838e-07,0.88,0.92,0
0.046001,-0.010654,0.027448,1.672e-10,0.0082343,1.4892e-05,0,0,0.049955,-0.021409,0,7.7439e-05,0,0,0,0.027448,-7.9128e-09,0.0082343,0.031087,0.011894,0.024396,4.6943e-07,0.92,0.92,0
0.048,-0.0107,0.027458,-1.1737e-05,0.0082339,1.0228e-05,0,0,0.049983,-0.021439,0,5.3185e-05,0,0,0,0.027458,-1.1741e-05,0.0082339,0.021333,0.011893,0.024414,4.7017e-07,0.96,0.92,0
0.05,-0.010715,0.027462,-1.5813e-05,0.0082337,-7.2117e-05,0,0,0.049993,-0.021449,0,-0.00037501,0,0,0,0.027462,-1.6002e-05,0.0082337,-0.15038,0.011893,0.024421,4.7044e-07,1,0.92,0
0,0,0.033998,0.014571,0.014571,-0.0097972,0,0,0.050512,3.4694e-18,0,-0.050945,0,0,0,0.038081,0.010488,0.014571,-22.622,0.021046,0.025795,8.0758e-07,0,0.96,0
0.0020205,-0.0020378,0.031159,0.0031699,0.010299,-0.0060347,0,0,0.054238,-0.018535,0,-0.03138,0,0,0,0.032405,0.0019242,0.010299,-11.663,0.014876,0.027276,7.2054e-07,0.04,0.96,0
0.004339,-0.00391,0.031774,0.0024317,0.010262,-0.0035645,0,0,0.055933,-0.020358,0,-0.018535,0,0,0,0.032201,0.0020049,0.010262,-6.8279,0.014823,0.027031,7.0442e-07,0.08,0.96,0
0.0064951,-0.005248,0.029357,0.0013073,0.0091993,-0.00175,0,0,0.05241,-0.020519,0,-0.0091,0,0,0,0.029466,0.0011985,0.0091993,-3.5563,0.013288,0.025237,5.5444e-07,0.12,0.96,0
0.0085318,-0.0062479,0.027845,0.00077036,0.0085844,-0.00082635,0,0,0.050076,-0.020317,0,-0.004297,0,0,0,0.02787,0.00074516,0.0085844,-1.7466,0.0124,0.024178,4.7695e-07,0.16,0.96,0
0.010501,-0.0069907,0.027049,0.00046893,0.0082555,-0.0002731,0,0,0.048864,-0.020245,0,-0.0014202,0,0,0,0.027052,0.00046613,0.0082555,-0.58861,0.011925,0.023673,4.4097e-07,0.2,0.96,0
0.012441,-0.0075441,0.026728,0.00027892,0.0081022,5.6887e-05,0,0,0.048428,-0.020341,0,0.00029581,0,0,0,0.026729,0.00027879,0.0081022,0.12323,0.011703,0.023534,4.2859e-07,0.24,0.96,0
0.014375,-0.0079598,0.026697,0.00014212,0.0080516,0.00024273,0,0,0.048477,-0.020565,0,0.0012622,0,0,0,0.026699,0.0001399,0.0080516,0.52368,0.01163,0.023619,4.296e-07,0.28,0.96,0
0.016319,-0.0082815,0.026826,3.7377e-05,0.0080589,0.00032245,0,0,0.048794,-0.020856,0,0.0016768,0,0,0,0.02683,3.3496e-05,0.0080589,0.68954,0.011641,0.02382,4.3783e-07,0.32,0.96,0
0.018279,-0.0085462,0.027024,-4.0899e-05,0.0080949,0.00032222,0,0,0.049215,-0.021153,0,0.0016755,0,0,0,0.027028,-4.4735e-05,0.0080949,0.68201,0.011693,0.024058,4.4899e-07,0.36,0.96,0
0.020256,-0.0087836,0.027225,-9.2363e-05,0.0081399,0.0002654,0,0,0.049622,-0.021404,0,0.0013801,0,0,0,0.027228,-9.4941e-05,0.0081399,0.55657,0.011758,0.024276,4.5994e-07,0.4,0.96,0
0.022249,-0.0090156,0.027387,-0.00011635,0.0081811,0.00017561,0,0,0.049934,-0.021573,0,0.00091319,0,0,0,0.027388,-0.00011747,0.0081811,0.36583,0.011817,0.024437,4.6849e-07,0.44,0.96,0
0.024251,-0.0092555,0.027485,-0.0001149,0.0082111,7.5792e-05,0,0,0.050113,-0.021648,0,0.00039412,0,0,0,0.027485,-0.0001151,0.0082111,0.15734,0.01186,0.024522,4.7347e-07,0.48,0.96,0
0.026258,-0.0095086,0.027516,-9.3642e-05,0.0082266,-1.4486e-05,0,0,0.050152,-0.021633,0,-7.5325e-05,0,0,0,0.027516,-9.3649e-05,0.0082266,-0.030061,0.011883,0.024531,4.7464e-07,0.52,0.96,0
0.028263,-0.0097733,0.027487,-6.0975e-05,0.0082279,-8.1684e-05,0,0,0.050074,-0.021551,0,-0.00042476,0,0,0,0.027487,-6.1217e-05,0.0082279,-0.16989,0.011885,0.02448,4.7259e-07,0.56,0.96,0
0.030264,-0.010043,0.027417,-2.5944e-05,0.0082174,-0.00011976,0,0,0.049919,-0.021433,0,-0.00062273,0,0,0,0.027418,-2.6467e-05,0.0082174,-0.25002,0.011869,0.02439,4.6837e-07,0.6,0.96,0
0.032257,-0.010309,0.027326,3.9986e-06,0.0081991,-0.00012977,0,0,0.049731,-0.021307,0,-0.00067478,0,0,0,0.027327,3.3823e-06,0.0081991,-0.27211,0.011843,0.024286,4.6319e-07,0.64,0.96,0
0.034242,-0.010562,0.027234,2.4463e-05,0.0081774,-0.0001179,0,0,0.049546,-0.021198,0,-0.00061306,0,0,0,0.027234,2.3952e-05,0.0081774,-0.24825,0.011812,0.024187,4.5812e-07,0.68,0.96,0
0.03622,-0.010795,0.027153,3.4331e-05,0.0081561,-9.2762e-05,0,0,0.049391,-0.021117,0,-0.00048236,0,0,0,0.027153,3.4014e-05,0.0081561,-0.19598,0.011781,0.024107,4.5386e-07,0.72,0.96,0
0.038193,-0.011,0.027092,3.4992e-05,0.008138,-6.2909e-05,0,0,0.04928,-0.021068,0,-0.00032712,0,0,0,0.027092,3.4846e-05,0.008138,-0.13322,0.011755,0.024052,4.5078e-07,0.76,0.96,0
0.040163,-0.011175,0.027052,2.919e-05,0.0081244,-3.5139e-05,0,0,0.049212,-0.021048,0,-0.00018272,0,0,0,0.027052,2.9145e-05,0.0081244,-0.074503,0.011735,0.024021,4.489e-07,0.8,0.96,0
0.04213,-0.011317,0.027031,1.9999e-05,0.0081154,-1.3759e-05,0,0,0.049182,-0.021048,0,-7.1547e-05,0,0,0,0.027031,1.9992e-05,0.0081154,-0.029185,0.011722,0.02401,4.4804e-07,0.84,0.96,0
0.044097,-0.011426,0.027024,1.0151e-05,0.0081104,-5.6752e-07,0,0,0.049177,-0.021061,0,-2.9511e-06,0,0,0,0.027024,1.0151e-05,0.0081104,-0.0012037,0.011715,0.024012,4.4787e-07,0.88,0.96,0
0.046065,-0.011504,0.027025,1.7407e-06,0.0081081,4.7396e-06,0,0,0.049184,-0.021076,0,2.4646e-05,0,0,0,0.027025,1.7399e-06,0.0081081,0.010049,0.011712,0.024019,4.4804e-07,0.92,0.96,0
0.048032,-0.01155,0.027028,-3.8273e-06,0.0081072,3.9965e-06,0,0,0.049194,-0.021089,0,2.0782e-05,0,0,0,0.027028,-3.8279e-06,0.0081072,0.0084709,0.01171,0.024026,4.4828e-07,0.96,0.96,0
0.05,-0.011565,0.027029,-5.7668e-06,0.008107,-7.3365e-05,0,0,0.049198,-0.021093,0,-0.0003815,0,0,0,0.02703,-5.9659e-06,0.008107,-0.15548,0.01171,0.024029,4.484e-07,1,0.96,0
0,0,0.053821,0.023066,0.023066,-0.014767,0,0,0.079962,0,0,-0.076786,0,0,0,0.059763,0.017124,0.023066,-21.92,0.033317,0.04,3.0439e-06,0,1,0
0.0031985,-0.0030714,0.038858,0.0024555,0.012394,-0.0058154,0,0,0.068807,-0.02584,0,-0.03024,0,0,0,0.039765,0.0015491,0.012394,-8.8595,0.017903,0.034112,1.3655e-06,0.04,1,0
0.0055046,-0.0047753,0.029684,0.00083701,0.0091564,-0.0016398,0,0,0.053373,-0.021631,0,-0.0085267,0,0,0,0.029777,0.0007441,0.0091564,-3.2429,0.013226,0.025874,5.8293e-07,0.08,1,0
0.0074683,-0.0060846,0.026057,-0.00032525,0.0077195,-0.00080329,0,0,0.047677,-0.020916,0,-0.0041771,0,0,0,0.026081,-0.00034968,0.0077195,-1.7424,0.01115,0.023461,4.0846e-07,0.12,1,0
0.0093187,-0.0070559,0.024985,-0.0003908,0.0073783,-0.0003175,0,0,0.045778,-0.0202,0,-0.001651,0,0,0,0.024989,-0.00039478,0.0073783,-0.71672,0.010658,0.022527,3.6015e-07,0.16,1,0
0.01113,-0.0077905,0.024743,-0.00038122,0.0073086,-7.6134e-05,0,0,0.04533,-0.019993,0,-0.0003959,0,0,0,0.024743,-0.00038145,0.0073086,-0.17362,0.010557,0.022298,3.4949e-07,0.2,1,0
0.012945,-0.0083463,0.024959,-0.00032195,0.0073912,6.5944e-05,0,0,0.045677,-0.020054,0,0.00034291,0,0,0,0.024959,-0.00032212,0.0073912,0.14945,0.010676,0.022442,3.578e-07,0.24,1,0
0.014785,-0.0087714,0.025409,-0.00025847,0.0075452,0.00014186,0,0,0.046446,-0.020289,0,0.00073767,0,0,0,0.02541,-0.00025925,0.0075452,0.31665,0.010899,0.022792,3.7647e-07,0.28,1,0
0.016661,-0.0091058,0.025957,-0.00019821,0.0077277,0.00017084,0,0,0.047397,-0.020607,0,0.00088837,0,0,0,0.025958,-0.00019932,0.0077277,0.37422,0.011162,0.023231,4.0032e-07,0.32,1,0
0.018576,-0.0093836,0.026501,-0.00014575,0.0079065,0.00016435,0,0,0.048345,-0.020936,0,0.00085461,0,0,0,0.026502,-0.00014677,0.0079065,0.35336,0.011421,0.023673,4.2505e-07,0.36,1,0
0.020528,-0.0096324,0.026965,-0.00010279,0.0080586,0.00013289,0,0,0.049156,-0.02122,0,0.00069103,0,0,0,0.026965,-0.00010344,0.0080586,0.28129,0.01164,0.02405,4.4694e-07,0.4,1,0
0.022509,-0.0098725,0.027301,-6.9995e-05,0.0081692,8.7168e-05,0,0,0.049742,-0.021422,0,0.00045327,0,0,0,0.027301,-7.0272e-05,0.0081692,0.18247,0.0118,0.024322,4.6321e-07,0.44,1,0
0.024508,-0.010117,0.027488,-4.7394e-05,0.0082323,3.7668e-05,0,0,0.050066,-0.021527,0,0.00019588,0,0,0,0.027488,-4.7446e-05,0.0082323,0.07838,0.011891,0.02447,4.7238e-07,0.48,1,0
0.026514,-0.01037,0.027534,-3.4549e-05,0.0082497,-6.6232e-06,0,0,0.050138,-0.021539,0,-3.444e-05,0,0,0,0.027534,-3.4551e-05,0.0082497,-0.013765,0.011916,0.0245,4.7448e-07,0.52,1,0
0.028519,-0.010632,0.027464,-3.0576e-05,0.0082299,-3.9496e-05,0,0,0.050008,-0.021477,0,-0.00020538,0,0,0,0.027464,-3.0633e-05,0.0082299,-0.082306,0.011888,0.024435,4.7081e-07,0.56,1,0
0.030515,-0.010898,0.027317,-3.4093e-05,0.0081849,-5.8214e-05,0,0,0.049744,-0.021369,0,-0.00030271,0,0,0,0.027317,-3.4217e-05,0.0081849,-0.12195,0.011823,0.024307,4.6339e-07,0.6,1,0
0.032498,-0.011159,0.027136,-4.3207e-05,0.0081277,-6.3348e-05,0,0,0.04942,-0.021244,0,-0.00032941,0,0,0,0.027136,-4.3354e-05,0.0081277,-0.13354,0.01174,0.024153,4.5437e-07,0.64,1,0
0.034468,-0.011407,0.026954,-5.5689e-05,0.0080696,-5.7876e-05,0,0,0.0491,-0.021126,0,-0.00030095,0,0,0,0.026954,-5.5813e-05,0.0080696,-0.12277,0.011656,0.024002,4.4556e-07,0.68,1,0
0.036426,-0.011636,0.026799,-6.9311e-05,0.0080189,-4.5924e-05,0,0,0.048828,-0.021029,0,-0.00023881,0,0,0,0.026799,-6.939e-05,0.0080189,-0.097932,0.011583,0.023875,4.3813e-07,0.72,1,0
0.038375,-0.011838,0.026682,-8.2221e-05,0.00798,-3.1598e-05,0,0,0.048626,-0.020962,0,-0.00016431,0,0,0,0.026682,-8.2258e-05,0.00798,-0.067643,0.011527,0.023781,4.3266e-07,0.76,1,0
0.040316,-0.012011,0.026606,-9.319e-05,0.0079539,-1.8175e-05,0,0,0.048496,-0.020923,0,-9.451e-05,0,0,0,0.026606,-9.3202e-05,0.0079539,-0.039003,0.011489,0.023723,4.2917e-07,0.8,1,0
0.042254,-0.012153,0.026566,-0.00010166,0.0079392,-7.7417e-06,0,0,0.048429,-0.020906,0,-4.0257e-05,0,0,0,0.026566,-0.00010167,0.0079392,-0.016633,0.011468,0.023693,4.2735e-07,0.84,1,0
0.044191,-0.012263,0.02655,-0.00010764,0.0079328,-1.1781e-06,0,0,0.048406,-0.020905,0,-6.1262e-06,0,0,0,0.02655,-0.00010764,0.0079328,-0.0025321,0.011458,0.023685,4.2671e-07,0.88,1,0
0.046127,-0.01234,0.026549,-0.00011145,0.0079313,1.6458e-06,0,0,0.048407,-0.020911,0,8.5583e-06,0,0,0,0.026549,-0.00011145,0.0079313,0.003537,0.011456,0.023687,4.2672e-07,0.92,1,0
0.048063,-0.012387,0.026553,-0.0001135,0.0079318,1.596e-06,0,0,0.048415,-0.020918,0,8.2992e-06,0,0,0,0.026553,-0.0001135,0.0079318,0.0034292,0.011457,0.023691,4.2693e-07,0.96,1,0
0.05,-0.012402,0.026555,-0.00011415,0.0079322,-7.3883e-05,0,0,0.048419,-0.020921,0,-0.00038419,0,0,0,0.026555,-0.00011435,0.0079322,-0.15873,0.011458,0.023694,4.2705e-07,1,1,0
