"Displacements:0","Displacements:1","Stress/Strain:0","Stress/Strain:1","Stress/Strain:2","Stress/Strain:3","Stress/Strain:4","Stress/Strain:5","Stress/Strain:6","Stress/Strain:7","Stress/Strain:8","Stress/Strain:9","Stress/Strain:10","Stress/Strain:11","Stress/Strain:12","Principal Stress:0","Principal Stress:1","Principal Stress:2","Principal Stress:3","Principal Stress:4","Principal Stress:5","Principal Stress:6","nodes:0","nodes:1","nodes:2"
0,0,0.065139,0.027917,0.027917,0.018844,0,0,0.096777,3.4694e-18,0,0.097988,0,0,0,0.073013,0.020042,0.027917,22.678,0.040324,0.049505,5.7034e-06,0,0,0
0.0038711,0.0039195,0.046146,0.0031546,0.01479,0.0076154,0,0,0.081525,-0.030253,0,0.0396,0,0,0,0.047455,0.0018455,0.01479,9.7539,0.021364,0.040711,2.3211e-06,0.04,0,0
0.006522,0.006139,0.033297,0.00085585,0.010246,0.0024232,0,0,0.059934,-0.024414,0,0.012601,0,0,0,0.033477,0.00067585,0.010246,4.2482,0.0148,0.029217,8.3292e-07,0.08,0,0
0.0086658,0.007772,0.027749,-0.00072702,0.0081066,0.0013126,0,0,0.05107,-0.022967,0,0.0068255,0,0,0,0.027809,-0.0007874,0.0081066,2.6336,0.011709,0.025348,5.0262e-07,0.12,0,0
0.010608,0.0088657,0.025643,-0.00087216,0.0074312,0.00065708,0,0,0.04735,-0.021589,0,0.0034168,0,0,0,0.025659,-0.00088844,0.0074312,1.4187,0.010734,0.023519,3.9724e-07,0.16,0,0
0.012454,0.0095365,0.024748,-0.0008774,0.0071612,0.00032169,0,0,0.045726,-0.0209,0,0.0016728,0,0,0,0.024752,-0.00088143,0.0071612,0.71911,0.010344,0.022707,3.5692e-07,0.2,0,0
0.014266,0.0098567,0.024514,-0.00083152,0.0071048,0.00012228,0,0,0.045264,-0.020634,0,0.00063586,0,0,0,0.024515,-0.00083211,0.0071048,0.27642,0.010262,0.022456,3.4619e-07,0.24,0,0
0.016075,0.0098931,0.024651,-0.00071608,0.0071804,5.9208e-05,0,0,0.045423,-0.020531,0,0.00030788,0,0,0,0.024651,-0.00071622,0.0071804,0.13373,0.010372,0.022484,3.5034e-07,0.28,0,0
0.0179,0.0097153,0.024775,-0.00071402,0.0072182,2.6828e-05,0,0,0.045647,-0.020624,0,0.00013951,0,0,0,0.024775,-0.00071405,0.0072182,0.060308,0.010426,0.022592,3.5555e-07,0.32,0,0
0.019727,0.0093719,0.025358,-0.00010709,0.0075754,0.00019507,0,0,0.046236,-0.019974,0,0.0010144,0,0,0,0.02536,-0.00010858,0.0075754,0.43886,0.010942,0.022627,3.7194e-07,0.36,0,0
0.021598,0.0089613,0.025614,-8.1338e-05,0.0076597,0.00012753,0,0,0.04668,-0.020127,0,0.00066318,0,0,0,0.025614,-8.1971e-05,0.0076597,0.28437,0.011064,0.022832,3.8281e-07,0.4,0,0
0.023461,0.0086369,0.025329,5.4966e-05,0.0076151,0.00049412,0,0,0.046056,-0.019656,0,0.0025694,0,0,0,0.025338,4.5309e-05,0.0076151,1.1196,0.011,0.022485,3.686e-07,0.44,0,0
0.025283,0.0084753,0.024821,0.00088201,0.007711,0.0003432,0,0,0.044487,-0.017755,0,0.0017846,0,0,0,0.024826,0.00087709,0.007711,0.82118,0.011138,0.021368,3.3375e-07,0.48,0,0
0.02702,0.008426,0.024146,0.00084563,0.0074974,8.8001e-05,0,0,0.043286,-0.017295,0,0.00045761,0,0,0,0.024146,0.0008453,0.0074974,0.2164,0.01083,0.020789,3.0718e-07,0.52,0,0
0.028746,0.0084489,0.023709,0.00016227,0.0071615,-0.00019238,0,0,0.043024,-0.018198,0,-0.0010003,0,0,0,0.023711,0.0001607,0.0071615,-0.46806,0.010344,0.020946,3.004e-07,0.56,0,0
0.030462,0.0085396,0.023829,0.00019187,0.0072062,-0.0001414,0,0,0.043219,-0.018237,0,-0.00073526,0,0,0,0.02383,0.00019103,0.0072062,-0.34273,0.010409,0.021028,3.0453e-07,0.6,0,0
0.032203,0.0086266,0.024456,0.00038821,0.0074534,-0.00047903,0,0,0.044208,-0.018369,0,-0.002491,0,0,0,0.024466,0.00037867,0.0074534,-1.1398,0.010766,0.021444,3.2685e-07,0.64,0,0
0.033999,0.0086467,0.025546,-1.8191e-05,0.0076584,-0.00053909,0,0,0.046508,-0.019959,0,-0.0028033,0,0,0,0.025558,-2.9554e-05,0.0076584,-1.2075,0.011062,0.02274,3.7944e-07,0.68,0,0
0.035924,0.0086504,0.027382,0.00022109,0.0082809,-0.00053833,0,0,0.049663,-0.020955,0,-0.0027993,0,0,0,0.027393,0.00021043,0.0082809,-1.135,0.011961,0.024179,4.6273e-07,0.72,0,0
0.037972,0.0087477,0.028751,0.00019394,0.0086834,-0.00042398,0,0,0.052175,-0.022073,0,-0.0022047,0,0,0,0.028757,0.00018765,0.0086834,-0.85042,0.012543,0.02541,5.3606e-07,0.76,0,0
0.040098,0.0090074,0.029293,9.17e-06,0.0087906,-0.00012283,0,0,0.053306,-0.022832,0,-0.0006387,0,0,0,0.029293,8.6548e-06,0.0087906,-0.24031,0.012698,0.02603,5.7045e-07,0.8,0,0
0.042236,0.0094449,0.028837,-0.00012469,0.0086135,0.00015897,0,0,0.05258,-0.022719,0,0.00082666,0,0,0,0.028837,-0.00012557,0.0086135,0.31449,0.012442,0.025732,5.4692e-07,0.84,0,0
0.044304,0.0099811,0.027667,-0.00018846,0.0082437,0.00035303,0,0,0.050501,-0.021923,0,0.0018358,0,0,0,0.027672,-0.00019293,0.0082437,0.72599,0.011907,0.02475,4.8459e-07,0.88,0,0
0.046276,0.010481,0.026343,-0.0003306,0.0078037,0.00029961,0,0,0.048202,-0.021149,0,0.001558,0,0,0,0.026346,-0.00033397,0.0078037,0.64347,0.011272,0.023684,4.2072e-07,0.92,0,0
0.04816,0.010827,0.025356,-0.00051264,0.0074529,0.00018491,0,0,0.046547,-0.02071,0,0.00096155,0,0,0,0.025357,-0.00051396,0.0074529,0.40954,0.010765,0.022949,3.78e-07,0.96,0,0
0.05,0.010949,0.025043,-0.00052707,0.0073547,0.00058723,0,0,0.045989,-0.020493,0,0.0030536,0,0,0,0.025056,-0.00054055,0.0073547,1.3149,0.010623,0.022703,3.6519e-07,1,0,0
0,0,0.040142,0.017204,0.017204,0.013026,0,0,0.059639,6.0715e-18,0,0.067736,0,0,0,0.046028,0.011317,0.017204,24.319,0.02485,0.032175,1.5194e-06,0,0.04,0
0.0023856,0.0027094,0.036748,0.0040175,0.01223,0.008317,0,0,0.063748,-0.021352,0,0.043248,0,0,0,0.03874,0.0020254,0.01223,13.47,0.017665,0.032825,1.2422e-06,0.04,0.04,0
0.0050998,0.0051625,0.036982,0.0031206,0.012031,0.0051818,0,0,0.064874,-0.023167,0,0.026946,0,0,0,0.037758,0.0023454,0.012031,8.5086,0.017378,0.031699,1.1358e-06,0.08,0.04,0
0.0075755,0.0068533,0.033443,0.0017157,0.010548,0.0028422,0,0,0.059528,-0.022963,0,0.014779,0,0,0,0.033696,0.0014631,0.010548,5.0787,0.015235,0.028786,8.2637e-07,0.12,0.04,0
0.0098621,0.0080021,0.031008,0.0010428,0.0096153,0.0016163,0,0,0.055621,-0.022288,0,0.0084049,0,0,0,0.031095,0.0009559,0.0096153,3.0786,0.013889,0.026877,6.5936e-07,0.16,0.04,0
0.012025,0.0087005,0.02947,0.00064087,0.0090332,0.00086454,0,0,0.053135,-0.02182,0,0.0044956,0,0,0,0.029496,0.00061497,0.0090332,1.7162,0.013048,0.025726,5.6925e-07,0.2,0.04,0
0.014113,0.0090314,0.028535,0.00034984,0.0086653,0.00043693,0,0,0.05166,-0.02162,0,0.002272,0,0,0,0.028541,0.00034307,0.0086653,0.88794,0.012517,0.025094,5.2092e-07,0.24,0.04,0
0.016158,0.0090718,0.027852,3.7352e-05,0.0083666,0.000247,0,0,0.050661,-0.021656,0,0.0012844,0,0,0,0.027854,3.5159e-05,0.0083666,0.50876,0.012085,0.024729,4.899e-07,0.28,0.04,0
0.018166,0.0088903,0.027318,-0.00014046,0.0081532,0.00033549,0,0,0.049828,-0.021563,0,0.0017446,0,0,0,0.027322,-0.00014456,0.0081532,0.69991,0.011777,0.0244,4.6561e-07,0.32,0.04,0
0.020144,0.0085729,0.026014,-0.0006262,0.0076164,0.00051834,0,0,0.047834,-0.021431,0,0.0026954,0,0,0,0.026024,-0.00063628,0.0076164,1.1142,0.011001,0.02364,4.1034e-07,0.36,0.04,0
0.021993,0.0081563,0.024911,-0.00057099,0.007302,0.0013725,0,0,0.045783,-0.02047,0,0.0071369,0,0,0,0.024985,-0.0006447,0.007302,3.0741,0.010547,0.022723,3.636e-07,0.4,0.04,0
0.023807,0.0078507,0.023958,0.00033649,0.0072883,0.0010976,0,0,0.043341,-0.018075,0,0.0057073,0,0,0,0.024009,0.0002856,0.0072883,2.6546,0.010528,0.021112,3.1011e-07,0.44,0.04,0
0.02546,0.0077651,0.022604,0.00074536,0.0070048,0.0007468,0,0,0.040558,-0.016275,0,0.0038834,0,0,0,0.02263,0.00071987,0.0070048,1.9545,0.010118,0.01954,2.5382e-07,0.48,0.04,0
0.027051,0.0077342,0.022243,0.00079102,0.0069101,0.00012545,0,0,0.039865,-0.01591,0,0.00065235,0,0,0,0.022243,0.00079028,0.0069101,0.33506,0.0099813,0.019142,2.3999e-07,0.52,0.04,0
0.028649,0.007721,0.022892,0.00065575,0.0070644,-0.00040674,0,0,0.041152,-0.016662,0,-0.002115,0,0,0,0.0229,0.00064831,0.0070644,-1.0476,0.010204,0.019837,2.641e-07,0.56,0.04,0
0.030344,0.0078101,0.023452,0.00021547,0.0071002,-0.0010941,0,0,0.042514,-0.0179,0,-0.0056893,0,0,0,0.023503,0.00016407,0.0071002,-2.6899,0.010256,0.020759,2.9251e-07,0.6,0.04,0
0.03205,0.0078918,0.024288,8.7556e-05,0.0073126,-0.00093432,0,0,0.044135,-0.018785,0,-0.0048584,0,0,0,0.024324,5.1538e-05,0.0073126,-2.2077,0.010563,0.021578,3.2595e-07,0.64,0.04,0
0.033875,0.0078484,0.025481,-2.1063e-05,0.0076381,-0.0010474,0,0,0.046393,-0.019914,0,-0.0054466,0,0,0,0.025524,-6.401e-05,0.0076381,-2.3479,0.011033,0.022738,3.7851e-07,0.68,0.04,0
0.035762,0.0078122,0.026308,1.0542e-06,0.0078927,-0.0010476,0,0,0.04788,-0.020518,0,-0.0054474,0,0,0,0.02635,-4.0595e-05,0.0078927,-2.2768,0.011401,0.023453,4.16e-07,0.72,0.04,0
0.037705,0.0078648,0.027125,-0.00020727,0.0080752,-0.00092326,0,0,0.049528,-0.021534,0,-0.004801,0,0,0,0.027156,-0.00023842,0.0080752,-1.9325,0.011664,0.024327,4.5884e-07,0.76,0.04,0
0.039724,0.0080942,0.02764,-0.00084891,0.0080374,-0.00052238,0,0,0.050967,-0.023104,0,-0.0027164,0,0,0,0.02765,-0.00085849,0.0080374,-1.0501,0.01161,0.025264,4.9534e-07,0.8,0.04,0
0.041782,0.0085362,0.028118,-0.00067553,0.0082327,0.00015475,0,0,0.051702,-0.023162,0,0.0008047,0,0,0,0.028119,-0.00067636,0.0082327,0.30792,0.011892,0.025534,5.1741e-07,0.84,0.04,0
0.04386,0.0091042,0.028353,-8.0259e-05,0.0084818,0.00043264,0,0,0.051665,-0.022261,0,0.0022497,0,0,0,0.028359,-8.6841e-05,0.0084818,0.87155,0.012251,0.025276,5.1947e-07,0.88,0.04,0
0.045915,0.0096347,0.028221,6.8881e-05,0.008487,0.00050168,0,0,0.051309,-0.021887,0,0.0026087,0,0,0,0.02823,5.9944e-05,0.008487,1.0206,0.012259,0.025044,5.0956e-07,0.92,0.04,0
0.047965,0.0099987,0.028195,0.00033274,0.0085585,0.00031005,0,0,0.051056,-0.021387,0,0.0016122,0,0,0,0.028199,0.00032929,0.0085585,0.63746,0.012362,0.024801,5.0258e-07,0.96,0.04,0
0.05,0.01013,0.028132,0.00040357,0.0085608,0.00062911,0,0,0.050886,-0.021209,0,0.0032714,0,0,0,0.028147,0.0003893,0.0085608,1.2991,0.012365,0.024707,4.9859e-07,1,0.04,0
0,0,0.036489,0.015638,0.015638,0.010632,0,0,0.054212,-1.7347e-18,0,0.055285,0,0,0,0.040954,0.011173,0.015638,22.781,0.022589,0.027818,1.0103e-06,0,0.08,0
0.0021685,0.0022114,0.035238,0.0095645,0.013441,0.0096544,0,0,0.056673,-0.010078,0,0.050203,0,0,0,0.038463,0.0063391,0.013441,18.473,0.019414,0.029228,1.0316e-06,0.04,0.08,0
0.0045338,0.0042857,0.035298,0.0047989,0.012029,0.0072982,0,0,0.060499,-0.018799,0,0.03795,0,0,0,0.036955,0.0031424,0.012029,12.787,0.017375,0.03036,1.033e-06,0.08,0.08,0
0.0070084,0.005935,0.034966,0.0030789,0.011414,0.0049453,0,0,0.061238,-0.02167,0,0.025716,0,0,0,0.035716,0.0023296,0.011414,8.6162,0.016486,0.029898,9.5749e-07,0.12,0.08,0
0.0094328,0.0070826,0.033667,0.0020223,0.010707,0.0031309,0,0,0.059697,-0.02258,0,0.016281,0,0,0,0.033974,0.0017155,0.010707,5.5965,0.015466,0.028834,8.3969e-07,0.16,0.08,0
0.011784,0.0077909,0.032471,0.0013521,0.010147,0.0019035,0,0,0.058042,-0.022866,0,0.009898,0,0,0,0.032587,0.0012361,0.010147,3.4873,0.014656,0.02798,7.5241e-07,0.2,0.08,0
0.014076,0.0081271,0.031447,0.00070879,0.0096468,0.0011187,0,0,0.056681,-0.023239,0,0.0058174,0,0,0,0.031488,0.00066813,0.0096468,2.0816,0.013934,0.027455,6.9227e-07,0.24,0.08,0
0.016319,0.0081606,0.030732,0.00020307,0.0092804,0.00083574,0,0,0.055773,-0.023601,0,0.0043459,0,0,0,0.030755,0.00018021,0.0092804,1.567,0.013405,0.027191,6.5618e-07,0.28,0.08,0
0.018538,0.0079902,0.029669,-0.00060671,0.0087187,0.00085718,0,0,0.054471,-0.024246,0,0.0044573,0,0,0,0.029693,-0.00063096,0.0087187,1.6204,0.012594,0.026897,6.0757e-07,0.32,0.08,0
0.020676,0.0076574,0.029644,-0.00060105,0.0087128,0.0017557,0,0,0.05442,-0.024216,0,0.0091294,0,0,0,0.029745,-0.00070262,0.0087128,3.3111,0.012585,0.027001,6.1221e-07,0.36,0.08,0
0.022892,0.0073237,0.032428,-0.00099804,0.0094289,0.0018467,0,0,0.042081,-0.018465,0,0.007507,0,0,0,0.032541,-0.0011119,0.0094289,3.3851,0.013619,0.029821,8.8315e-07,0.4,0.08,0
0.024309,0.0071909,0.029293,0.00060047,0.008968,0.0014516,0,0,0.03523,-0.015001,0,0.0064413,0,0,0,0.029407,0.00048611,0.008968,3.5639,0.012954,0.025757,7.496e-07,0.44,0.08,0
0.02571,0.0071733,0.029338,0.00096932,0.0090923,0.00096262,0,0,0.035093,-0.014258,0,0.0039492,0,0,0,0.029379,0.00092838,0.0090923,2.2734,0.013133,0.025375,7.3927e-07,0.48,0.08,0
0.027116,0.0071532,0.029152,0.00093808,0.0090269,0.00031123,0,0,0.034883,-0.014147,0,0.0010347,0,0,0,0.029155,0.00093459,0.0090269,0.60508,0.013039,0.02517,7.2398e-07,0.52,0.08,0
0.028501,0.0071159,0.028244,0.00052521,0.0086307,-0.0001801,0,0,0.033996,-0.014319,0,-0.0015377,0,0,0,0.028265,0.00050441,0.0086307,-0.88176,0.012467,0.024722,6.6996e-07,0.56,0.08,0
0.029836,0.0071076,0.030108,-0.00041143,0.008909,-0.00025558,0,0,0.038425,-0.016356,0,-0.002515,0,0,0,0.030162,-0.00046586,0.008909,-1.055,0.012868,0.027187,7.1115e-07,0.6,0.08,0
0.031776,0.0071238,0.026485,0.00079773,0.0081849,-0.00091644,0,0,0.047581,-0.019207,0,-0.0047655,0,0,0,0.026518,0.00076508,0.0081849,-2.0406,0.011823,0.02296,4.0985e-07,0.64,0.08,0
0.033642,0.0070536,0.025519,0.00032272,0.0077525,-0.0012489,0,0,0.046193,-0.019317,0,-0.0064945,0,0,0,0.025581,0.00026096,0.0077525,-2.8308,0.011198,0.022528,3.758e-07,0.68,0.08,0
0.035472,0.007009,0.025234,0.00017614,0.0076231,-0.0014575,0,0,0.045789,-0.019362,0,-0.007579,0,0,0,0.025319,9.1646e-05,0.0076231,-3.3177,0.011011,0.022431,3.6701e-07,0.72,0.08,0
0.037306,0.0070249,0.02566,-2.169e-05,0.0076916,-0.0016323,0,0,0.046719,-0.020054,0,-0.0084878,0,0,0,0.025764,-0.00012502,0.0076916,-3.6221,0.01111,0.022999,3.9022e-07,0.76,0.08,0
0.039209,0.0071591,0.027101,-0.00062442,0.007943,-0.0014795,0,0,0.049811,-0.022275,0,-0.0076936,0,0,0,0.02718,-0.00070316,0.007943,-3.046,0.011473,0.024721,4.6813e-07,0.8,0.08,0
0.041291,0.007592,0.028019,-0.0015549,0.0079391,-0.0012855,0,0,0.052207,-0.024685,0,-0.0066846,0,0,0,0.028074,-0.0016107,0.0079391,-2.4843,0.011468,0.026247,5.3136e-07,0.84,0.08,0
0.043386,0.0082002,0.02908,-0.0010536,0.0084081,9.0705e-05,0,0,0.053748,-0.0246,0,0.00047167,0,0,0,0.029081,-0.0010538,0.0084081,0.17246,0.012145,0.026693,5.7918e-07,0.88,0.08,0
0.04559,0.0087297,0.030299,4.4033e-05,0.0091028,0.00041157,0,0,0.055109,-0.023553,0,0.0021401,0,0,0,0.030304,3.8435e-05,0.0091028,0.77923,0.013149,0.026904,6.3091e-07,0.92,0.08,0
0.047794,0.0091162,0.03051,0.00052131,0.0093093,0.00037673,0,0,0.055121,-0.022849,0,0.001959,0,0,0,0.030514,0.00051658,0.0093093,0.71963,0.013447,0.02671,6.331e-07,0.96,0.08,0
0.05,0.0092526,0.030624,0.0007665,0.0094172,0.00065577,0,0,0.055138,-0.022492,0,0.00341,0,0,0,0.030638,0.0007521,0.0094172,1.2576,0.013603,0.026633,6.353e-07,1,0.08,0
0,0,0.035607,0.01526,0.01526,0.0091498,0,0,0.052902,8.6736e-19,0,0.047579,0,0,0,0.039117,0.011751,0.01526,20.984,0.022043,0.025791,8.2634e-07,0,0.12,0
0.0021161,0.0019032,0.035101,0.011192,0.013888,0.0087402,0,0,0.055154,-0.0070087,0,0.045449,0,0,0,0.037955,0.0083381,0.013888,18.086,0.02006,0.027269,8.9777e-07,0.04,0.12,0
0.0044123,0.0036586,0.035595,0.007419,0.012904,0.0075442,0,0,0.058996,-0.014262,0,0.03923,0,0,0,0.037488,0.0055262,0.012904,14.085,0.018639,0.028986,9.8288e-07,0.08,0.12,0
0.0068358,0.0051197,0.035694,0.0048207,0.012155,0.0058407,0,0,0.061203,-0.019068,0,0.030371,0,0,0,0.036762,0.0037527,0.012155,10.362,0.017556,0.029713,9.9298e-07,0.12,0.12,0
0.0093086,0.0061958,0.035365,0.0034032,0.01163,0.0041874,0,0,0.061709,-0.02139,0,0.021774,0,0,0,0.035904,0.0028637,0.01163,7.3415,0.016799,0.029646,9.5419e-07,0.16,0.12,0
0.011772,0.0068712,0.034658,0.0023414,0.0111,0.0027949,0,0,0.061251,-0.022772,0,0.014533,0,0,0,0.034898,0.0021015,0.0111,4.9067,0.016033,0.02935,8.9895e-07,0.2,0.12,0
0.014209,0.0071723,0.034058,0.0014228,0.010644,0.001876,0,0,0.060876,-0.023976,0,0.0097555,0,0,0,0.034166,0.0013153,0.010644,3.2793,0.015375,0.029321,8.6657e-07,0.24,0.12,0
0.016643,0.0071837,0.033101,4.4488e-05,0.0099438,0.0013456,0,0,0.06021,-0.025738,0,0.0069972,0,0,0,0.033156,-1.0197e-05,0.0099438,2.3272,0.014363,0.029478,8.2773e-07,0.28,0.12,0
0.019025,0.0069507,0.033451,-0.00044987,0.0099002,0.0017952,0,0,0.061231,-0.02691,0,0.0093352,0,0,0,0.033545,-0.00054467,0.0099002,3.0229,0.0143,0.030252,8.716e-07,0.32,0.12,0
0.021541,0.0066356,0.037722,-0.00059764,0.011137,0.0013604,0,0,0.048481,-0.021084,0,0.0060054,0,0,0,0.037788,-0.00066404,0.011137,2.2899,0.016087,0.03412,1.3821e-06,0.36,0.12,0
0.023192,0.0066321,0.030468,-0.00036832,0.00903,0.00058847,0,0,0.038189,-0.01654,0,0.0033859,0,0,0,0.030514,-0.00041418,0.00903,1.6225,0.013043,0.027454,7.8215e-07,0.4,0.12,0
0.024473,0.0066506,0.03617,0.00038243,0.010966,0.00048248,0,0,0.032766,-0.013758,0,0.0012545,0,0,0,0.036177,0.00037592,0.010966,0.77226,0.015839,0.031855,1.0627e-06,0.44,0.12,0
0.025813,0.0066244,0.03781,0.0010741,0.011665,0.00037526,0,0,0.033989,-0.013769,0,0.00097568,0,0,0,0.037814,0.0010703,0.011665,0.5852,0.01685,0.032758,1.1892e-06,0.48,0.12,0
0.027192,0.0066025,0.038373,0.0011347,0.011852,0.00049888,0,0,0.034477,-0.013933,0,0.0012971,0,0,0,0.03838,0.001128,0.011852,0.7674,0.01712,0.033214,1.2418e-06,0.52,0.12,0
0.028571,0.0065755,0.038066,0.0007628,0.011649,0.00056423,0,0,0.034343,-0.014152,0,0.001467,0,0,0,0.038075,0.00075427,0.011649,0.86635,0.016826,0.03324,1.2259e-06,0.56,0.12,0
0.029939,0.0064775,0.033489,0.0012782,0.01043,0.00074692,0,0,0.041124,-0.015836,0,0.001823,0,0,0,0.033519,0.0012475,0.01043,0.9869,0.015066,0.028805,9.7859e-07,0.6,0.12,0
0.031723,0.0063553,0.036922,0.0012791,0.01146,-0.00016032,0,0,0.044133,-0.018039,0,-0.0012967,0,0,0,0.036932,0.0012683,0.01146,-0.57758,0.016554,0.03182,1.4669e-06,0.64,0.12,0
0.03347,0.006303,0.035954,0.00069356,0.010994,-0.00077461,0,0,0.043264,-0.018082,0,-0.0033808,0,0,0,0.03598,0.00066778,0.010994,-1.5648,0.015881,0.031448,1.3803e-06,0.68,0.12,0
0.035184,0.0062632,0.035254,0.0003851,0.010692,-0.0012513,0,0,0.042575,-0.018059,0,-0.0051857,0,0,0,0.035312,0.00032719,0.010692,-2.4288,0.015444,0.031126,1.3167e-06,0.72,0.12,0
0.036876,0.0062604,0.034558,-6.8976e-05,0.010347,-0.0015979,0,0,0.041966,-0.018319,0,-0.0066881,0,0,0,0.034655,-0.00016624,0.010347,-3.135,0.014945,0.030937,1.2614e-06,0.76,0.12,0
0.038541,0.0063121,0.033979,-0.00077996,0.0099596,-0.001669,0,0,0.041633,-0.019255,0,-0.0075743,0,0,0,0.034113,-0.00091475,0.0099596,-3.4467,0.014386,0.031063,1.2284e-06,0.8,0.12,0
0.040206,0.0065614,0.037153,-0.0028603,0.010288,-0.0015569,0,0,0.049034,-0.023215,0,-0.006445,0,0,0,0.037224,-0.0029312,0.010288,-2.4325,0.01486,0.035454,1.3809e-06,0.84,0.12,0
0.04276,0.0071361,0.033441,-0.0015256,0.0095747,-0.0010115,0,0,0.062053,-0.028861,0,-0.00526,0,0,0,0.033471,-0.0015548,0.0095747,-1.6556,0.01383,0.030997,8.9157e-07,0.88,0.12,0
0.045171,0.0077504,0.033045,-0.00043333,0.0097835,0.00024238,0,0,0.06048,-0.026564,0,0.0012604,0,0,0,0.033047,-0.00043508,0.0097835,0.41478,0.014132,0.029721,8.307e-07,0.92,0.12,0
0.047598,0.0081709,0.033567,0.00093137,0.01035,0.00027006,0,0,0.060366,-0.024487,0,0.0014043,0,0,0,0.03357,0.00092913,0.01035,0.47408,0.014949,0.029097,8.3261e-07,0.96,0.12,0
0.05,0.0083303,0.033467,0.0011133,0.010374,0.00076643,0,0,0.060042,-0.024078,0,0.0039854,0,0,0,0.033485,0.0010951,0.010374,1.3563,0.014985,0.028891,8.2148e-07,1,0.12,0
0,0,0.036108,0.015475,0.015475,0.0079361,0,0,0.053645,0,0,0.041268,0,0,0,0.038807,0.012775,0.015475,18.785,0.022352,0.024792,7.5147e-07,0,0.16,0
0.0021458,0.0016507,0.035711,0.01192,0.014289,0.0077731,0,0,0.055697,-0.0061602,0,0.04042,0,0,0,0.038026,0.0096055,0.014289,16.581,0.02064,0.026392,8.4476e-07,0.04,0.16,0
0.0044557,0.0031448,0.036449,0.0088423,0.013587,0.007024,0,0,0.05944,-0.012337,0,0.036525,0,0,0,0.038133,0.0071579,0.013587,13.485,0.019626,0.028313,9.6616e-07,0.08,0.16,0
0.006901,0.0044095,0.036851,0.0063774,0.012968,0.0059581,0,0,0.062094,-0.017137,0,0.030982,0,0,0,0.037974,0.0052539,0.012968,10.679,0.018732,0.029626,1.0365e-06,0.12,0.16,0
0.0094232,0.0053714,0.036852,0.0047475,0.01248,0.0046931,0,0,0.063367,-0.020104,0,0.024404,0,0,0,0.037524,0.0040755,0.01248,8.1485,0.018026,0.030138,1.0461e-06,0.16,0.16,0
0.01197,0.0059692,0.036758,0.0037026,0.012138,0.0034235,0,0,0.064011,-0.021932,0,0.017802,0,0,0,0.037109,0.0033517,0.012138,5.8514,0.017533,0.030333,1.0384e-06,0.2,0.16,0
0.014544,0.0062091,0.036042,0.0018905,0.01138,0.002278,0,0,0.064121,-0.024672,0,0.011845,0,0,0,0.036193,0.0017392,0.01138,3.7993,0.016437,0.030787,1.0183e-06,0.24,0.16,0
0.0171,0.0061015,0.036593,0.00062638,0.011166,0.0021544,0,0,0.06611,-0.027402,0,0.011203,0,0,0,0.036721,0.00049779,0.011166,3.4157,0.016128,0.032242,1.1076e-06,0.28,0.16,0
0.019833,0.0058374,0.041322,2.1773e-05,0.012403,0.0011786,0,0,0.052726,-0.022371,0,0.0054428,0,0,0,0.041376,-3.1694e-05,0.012403,1.8893,0.017916,0.036802,1.7874e-06,0.32,0.16,0
0.02163,0.0058815,0.032916,-0.00017164,0.0098232,-9.0585e-05,0,0,0.041252,-0.017707,0,0.00059662,0,0,0,0.032932,-0.00018808,0.0098232,0.18215,0.014189,0.029421,9.6923e-07,0.36,0.16,0
0.022986,0.0060305,0.038139,-0.00033335,0.011342,-0.00086858,0,0,0.034836,-0.015177,0,-0.0022583,0,0,0,0.038158,-0.00035295,0.011342,-1.2927,0.016382,0.034198,1.2737e-06,0.4,0.16,0
0.024417,0.0060903,0.039472,0.00075241,0.012067,-0.00064073,0,0,0.035626,-0.01471,0,-0.0016659,0,0,0,0.039483,0.00074181,0.012067,-0.94777,0.017431,0.034502,1.3686e-06,0.44,0.16,0
0.025836,0.0060718,0.039708,0.0012403,0.012285,-0.00034166,0,0,0.035651,-0.014358,0,-0.00088832,0,0,0,0.039711,0.0012373,0.012285,-0.50883,0.017744,0.034311,1.3727e-06,0.48,0.16,0
0.027269,0.0060386,0.040493,0.0013166,0.012543,7.2368e-05,0,0,0.036335,-0.014594,0,0.00018816,0,0,0,0.040494,0.0013164,0.012543,0.10584,0.018118,0.034944,1.4531e-06,0.52,0.16,0
0.028743,0.0059838,0.042049,0.0011614,0.012963,0.00022211,0,0,0.037812,-0.015342,0,0.00057748,0,0,0,0.04205,0.0011602,0.012963,0.31123,0.018725,0.036451,1.6367e-06,0.56,0.16,0
0.030294,0.0058374,0.043119,0.0011212,0.013272,0.00055359,0,0,0.038801,-0.015796,0,0.0014393,0,0,0,0.043126,0.001114,0.013272,0.75507,0.019171,0.037444,1.7691e-06,0.6,0.16,0
0.031847,0.0056807,0.044063,0.0012096,0.013582,-0.00019708,0,0,0.039626,-0.016084,0,-0.00051241,0,0,0,0.044064,0.0012087,0.013582,-0.26349,0.019618,0.038202,1.8836e-06,0.64,0.16,0
0.033464,0.005607,0.045014,0.00078958,0.013741,-0.00050344,0,0,0.040655,-0.016837,0,-0.0013089,0,0,0,0.04502,0.00078385,0.013741,-0.65213,0.019848,0.03939,2.032e-06,0.68,0.16,0
0.035099,0.0055642,0.044906,0.00036934,0.013583,-0.00074493,0,0,0.04072,-0.017177,0,-0.0019368,0,0,0,0.044918,0.00035689,0.013583,-0.95799,0.019619,0.039639,2.0397e-06,0.72,0.16,0
0.036722,0.0055594,0.043851,-0.00033579,0.013055,-0.00065531,0,0,0.040035,-0.017407,0,-0.0017038,0,0,0,0.043861,-0.00034551,0.013055,-0.84948,0.018857,0.03926,1.9315e-06,0.76,0.16,0
0.038302,0.0056187,0.041985,-0.0015064,0.012143,-0.0005038,0,0,0.038794,-0.017745,0,-0.0013099,0,0,0,0.041991,-0.0015122,0.012143,-0.6636,0.017541,0.038534,1.7432e-06,0.8,0.16,0
0.039825,0.0056838,0.035413,-0.0020131,0.01002,1.7543e-05,0,0,0.045203,-0.021128,0,-0.0010405,0,0,0,0.035434,-0.0020338,0.01002,-0.35588,0.014473,0.03313,1.2812e-06,0.84,0.16,0
0.041776,0.0058913,0.043221,-0.0028718,0.012105,-0.00014767,0,0,0.056518,-0.026697,0,-0.0014059,0,0,0,0.043232,-0.0028826,0.012105,-0.37856,0.017485,0.040747,2.1907e-06,0.88,0.16,0
0.044657,0.0066046,0.037988,-0.00032059,0.0113,-0.00015762,0,0,0.069389,-0.030214,0,-0.00081963,0,0,0,0.037989,-0.00032124,0.0113,-0.23574,0.016323,0.034022,1.2558e-06,0.92,0.16,0
0.047327,0.0071572,0.037211,0.0011911,0.01152,0.00015981,0,0,0.066794,-0.026856,0,0.00083103,0,0,0,0.037211,0.0011904,0.01152,0.25421,0.016641,0.032127,1.1283e-06,0.96,0.16,0
0.05,0.0073264,0.037199,0.0011261,0.011498,0.00081322,0,0,0.066825,-0.026966,0,0.0042287,0,0,0,0.037218,0.0011078,0.011498,1.2908,0.016608,0.032198,1.1319e-06,1,0.16,0
0,0,0.037102,0.015901,0.015901,0.0067805,0,0,0.055123,4.3368e-19,0,0.035259,0,0,0,0.039085,0.013918,0.015901,16.302,0.022968,0.024237,7.1474e-07,0,0.2,0
0.0022049,0.0014104,0.036738,0.012397,0.014741,0.0067187,0,0,0.057193,-0.0060924,0,0.034937,0,0,0,0.038469,0.010666,0.014741,14.45,0.021292,0.026007,8.2913e-07,0.04,0.2,0
0.0045755,0.0026716,0.03768,0.0096711,0.014205,0.0062367,0,0,0.061035,-0.011789,0,0.032431,0,0,0,0.039006,0.0083451,0.014205,12.002,0.020519,0.028192,9.8523e-07,0.08,0.2,0
0.0070878,0.0037487,0.038387,0.0074269,0.013744,0.0055832,0,0,0.064072,-0.016425,0,0.029033,0,0,0,0.039363,0.0064508,0.013744,9.9164,0.019853,0.02994,1.1075e-06,0.12,0.2,0
0.0097012,0.0045874,0.038691,0.0058044,0.013349,0.0047571,0,0,0.065891,-0.019615,0,0.024737,0,0,0,0.039366,0.0051301,0.013349,8.0677,0.019282,0.030956,1.1692e-06,0.16,0.2,0
0.012359,0.0051166,0.038608,0.0047851,0.013018,0.0036467,0,0,0.066534,-0.021405,0,0.018963,0,0,0,0.038997,0.0043964,0.013018,6.0843,0.018804,0.031196,1.1671e-06,0.2,0.2,0
0.015024,0.0051985,0.039598,0.003429,0.012908,0.0028061,0,0,0.069393,-0.024645,0,0.014592,0,0,0,0.039814,0.0032126,0.012908,4.41,0.018645,0.032845,1.2995e-06,0.24,0.2,0
0.01791,0.0049915,0.044794,0.0013914,0.013856,0.0014671,0,0,0.056275,-0.022483,0,0.0065144,0,0,0,0.044864,0.0013218,0.013856,2.1914,0.020014,0.038824,2.2186e-06,0.28,0.2,0
0.019844,0.0050517,0.035558,0.00050737,0.01082,-0.00022944,0,0,0.044243,-0.018316,0,-0.00015296,0,0,0,0.035568,0.00049786,0.01082,-0.14737,0.015628,0.031217,1.1916e-06,0.32,0.2,0
0.021286,0.005265,0.040817,0.00040053,0.012365,-0.00099692,0,0,0.036987,-0.015554,0,-0.002592,0,0,0,0.040842,0.00037596,0.012365,-1.4121,0.017861,0.036001,1.5311e-06,0.36,0.2,0
0.022803,0.0054179,0.041552,0.00042689,0.012594,-0.00078766,0,0,0.037646,-0.015817,0,-0.0020479,0,0,0,0.041567,0.00041182,0.012594,-1.0968,0.018191,0.036617,1.613e-06,0.4,0.2,0
0.024298,0.0054738,0.041272,0.00042542,0.012509,-0.00091187,0,0,0.037391,-0.015709,0,-0.0023709,0,0,0,0.041292,0.00040508,0.012509,-1.2782,0.018069,0.036378,1.5813e-06,0.44,0.2,0
0.025794,0.0054758,0.04157,0.00094477,0.012754,-0.00075672,0,0,0.03746,-0.015352,0,-0.0019675,0,0,0,0.041584,0.00093068,0.012754,-1.0668,0.018423,0.036219,1.5923e-06,0.48,0.2,0
0.027295,0.0054349,0.042011,0.0010731,0.012925,-0.00063533,0,0,0.037811,-0.015408,0,-0.0016519,0,0,0,0.042021,0.0010632,0.012925,-0.88892,0.01867,0.036502,1.6375e-06,0.52,0.2,0
0.028819,0.0053481,0.042426,0.00083741,0.012979,-0.00073082,0,0,0.038281,-0.015784,0,-0.0019001,0,0,0,0.042439,0.00082457,0.012979,-1.0064,0.018748,0.037063,1.6984e-06,0.56,0.2,0
0.030357,0.0052138,0.043085,0.0013893,0.013342,-0.001011,0,0,0.038666,-0.015539,0,-0.0026286,0,0,0,0.04311,0.0013648,0.013342,-1.3881,0.019272,0.037231,1.7552e-06,0.6,0.2,0
0.031912,0.0050686,0.043682,0.0017899,0.013642,-0.00088808,0,0,0.039052,-0.015407,0,-0.002309,0,0,0,0.043701,0.0017711,0.013642,-1.2139,0.019704,0.037434,1.809e-06,0.64,0.2,0
0.033482,0.004956,0.043914,0.0010445,0.013487,-0.00072365,0,0,0.039554,-0.016176,0,-0.0018815,0,0,0,0.043926,0.0010323,0.013487,-0.96681,0.019482,0.03822,1.8744e-06,0.68,0.2,0
0.035076,0.0048891,0.044141,0.0003223,0.013339,-0.00047758,0,0,0.040043,-0.016922,0,-0.0012417,0,0,0,0.044146,0.0003171,0.013339,-0.62437,0.019268,0.038985,1.938e-06,0.72,0.2,0
0.036685,0.0048678,0.044276,-0.0003902,0.013166,-3.4538e-05,0,0,0.040444,-0.017623,0,-8.98e-05,0,0,0,0.044276,-0.00039023,0.013166,-0.044304,0.019017,0.039666,1.9889e-06,0.76,0.2,0
0.038312,0.0048925,0.044673,-0.0014592,0.012964,0.00046961,0,0,0.041222,-0.01875,0,0.001221,0,0,0,0.044678,-0.001464,0.012964,0.58317,0.018726,0.040884,2.0933e-06,0.8,0.2,0
0.039983,0.0049036,0.044276,-0.002697,0.012474,0.0011355,0,0,0.041343,-0.019722,0,0.0029523,0,0,0,0.044303,-0.0027244,0.012474,1.384,0.018017,0.041567,2.0957e-06,0.84,0.2,0
0.041619,0.0049119,0.039672,-0.001695,0.011393,0.0015418,0,0,0.050636,-0.023136,0,0.005664,0,0,0,0.03973,-0.0017528,0.011393,2.1794,0.016457,0.03672,1.7497e-06,0.88,0.2,0
0.043839,0.0053333,0.049134,-0.0015213,0.014284,-0.00011244,0,0,0.062862,-0.028022,0,-0.00079186,0,0,0,0.049136,-0.0015235,0.014284,-0.21309,0.020632,0.044897,3.1885e-06,0.92,0.2,0
0.046943,0.0060223,0.043121,0.0018851,0.013502,0.00049561,0,0,0.077009,-0.030203,0,0.0025772,0,0,0,0.043127,0.0018792,0.013502,0.68851,0.019502,0.036838,1.7323e-06,0.96,0.2,0
0.05,0.006173,0.042633,0.0014982,0.013239,0.00072429,0,0,0.076424,-0.030527,0,0.0037663,0,0,0,0.042646,0.0014855,0.013239,1.0084,0.019124,0.036723,1.6927e-06,1,0.2,0
0,0,0.038183,0.016364,0.016364,0.0055929,0,0,0.056729,-8.6736e-19,0,0.029083,0,0,0,0.039533,0.015014,0.016364,13.571,0.023637,0.023873,6.9122e-07,0,0.24,0
0.0022692,0.0011633,0.037822,0.012742,0.015169,0.0055689,0,0,0.058897,-0.0063103,0,0.028958,0,0,0,0.039003,0.011561,0.015169,11.973,0.021911,0.025828,8.2694e-07,0.04,0.24,0
0.0047118,0.0022016,0.038974,0.010191,0.014749,0.0052319,0,0,0.062983,-0.011852,0,0.027206,0,0,0,0.039895,0.0092693,0.014749,9.9893,0.021305,0.028287,1.0169e-06,0.08,0.24,0
0.0073078,0.0030955,0.040052,0.0081587,0.014463,0.0047874,0,0,0.066531,-0.016392,0,0.024895,0,0,0,0.040755,0.0074556,0.014463,8.3552,0.020891,0.030408,1.1895e-06,0.12,0.24,0
0.010034,0.0038022,0.041167,0.006817,0.014395,0.0041767,0,0,0.069606,-0.019703,0,0.021719,0,0,0,0.041667,0.0063165,0.014395,6.8341,0.020793,0.032084,1.3405e-06,0.16,0.24,0
0.012876,0.0042568,0.042552,0.0063034,0.014657,0.0030649,0,0,0.072528,-0.021718,0,0.015937,0,0,0,0.042809,0.0060461,0.014657,4.799,0.021171,0.033303,1.4782e-06,0.2,0.24,0
0.015836,0.0042374,0.04924,0.0046341,0.016162,0.0029319,0,0,0.059717,-0.02056,0,0.011545,0,0,0,0.049446,0.0044288,0.016162,3.9746,0.023346,0.040448,2.8145e-06,0.24,0.24,0
0.017939,0.0041976,0.038933,0.0019673,0.01227,-0.00011188,0,0,0.047804,-0.018356,0,-0.0003591,0,0,0,0.038933,0.0019669,0.01227,-0.16046,0.017723,0.033042,1.4845e-06,0.28,0.24,0
0.01947,0.0044251,0.043503,0.0016007,0.013531,-0.00055409,0,0,0.038964,-0.01551,0,-0.0014406,0,0,0,0.043511,0.0015934,0.013531,-0.75746,0.019545,0.037406,1.7939e-06,0.32,0.24,0
0.021056,0.0046372,0.043653,0.0011121,0.01343,-0.00038392,0,0,0.03929,-0.016013,0,-0.00099819,0,0,0,0.043657,0.0011086,0.01343,-0.51702,0.019398,0.03792,1.8361e-06,0.36,0.24,0
0.022613,0.0047652,0.042935,0.00041021,0.013004,-0.00073436,0,0,0.038911,-0.016372,0,-0.0019093,0,0,0,0.042948,0.00039753,0.013004,-0.98904,0.018783,0.037856,1.7804e-06,0.4,0.24,0
0.024169,0.0048336,0.042866,0.00052379,0.013017,-0.0008646,0,0,0.038803,-0.016241,0,-0.0022479,0,0,0,0.042883,0.00050614,0.013017,-1.1693,0.018802,0.037712,1.7673e-06,0.44,0.24,0
0.025718,0.0048436,0.042836,0.00074556,0.013074,-0.00094686,0,0,0.03869,-0.016028,0,-0.0024618,0,0,0,0.042857,0.00072427,0.013074,-1.2881,0.018885,0.037515,1.754e-06,0.48,0.24,0
0.027265,0.004806,0.042933,0.00099608,0.013179,-0.0010291,0,0,0.038681,-0.015838,0,-0.0026756,0,0,0,0.042959,0.00097084,0.013179,-1.4048,0.019036,0.037409,1.7551e-06,0.52,0.24,0
0.028812,0.004721,0.043106,0.0012665,0.013312,-0.0012331,0,0,0.038733,-0.015659,0,-0.003206,0,0,0,0.043142,0.0012302,0.013312,-1.6866,0.019228,0.037366,1.7656e-06,0.56,0.24,0
0.030363,0.0045943,0.043358,0.0015542,0.013474,-0.0013962,0,0,0.03885,-0.015495,0,-0.0036301,0,0,0,0.043404,0.0015076,0.013474,-1.9108,0.019462,0.037379,1.7848e-06,0.6,0.24,0
0.03192,0.0044481,0.043641,0.0015152,0.013547,-0.0013563,0,0,0.039122,-0.015641,0,-0.0035263,0,0,0,0.043685,0.0014715,0.013547,-1.8421,0.019568,0.037657,1.8219e-06,0.64,0.24,0
0.033493,0.004313,0.043915,0.00092148,0.013451,-0.0010502,0,0,0.039603,-0.016288,0,-0.0027304,0,0,0,0.04394,0.00089584,0.013451,-1.3984,0.019429,0.038341,1.8829e-06,0.68,0.24,0
0.035088,0.0042105,0.044209,1.481e-05,0.013267,-0.00059828,0,0,0.040225,-0.017228,0,-0.0015555,0,0,0,0.044217,6.712e-06,0.013267,-0.77545,0.019164,0.039296,1.9623e-06,0.72,0.24,0
0.036711,0.0041496,0.044578,-0.00097748,0.01308,-0.00010072,0,0,0.040947,-0.018275,0,-0.00026188,0,0,0,0.044579,-0.0009777,0.01308,-0.12668,0.018894,0.040405,2.0573e-06,0.76,0.24,0
0.038364,0.0041187,0.044845,-0.0021236,0.012816,0.0002972,0,0,0.041637,-0.019422,0,0.00077273,0,0,0,0.044847,-0.0021255,0.012816,0.36253,0.018513,0.041567,2.1465e-06,0.8,0.24,0
0.040042,0.004106,0.045558,-0.0025736,0.012895,0.00040096,0,0,0.042462,-0.02011,0,0.0010425,0,0,0,0.045561,-0.002577,0.012895,0.47725,0.018627,0.042566,2.2695e-06,0.84,0.24,0
0.041761,0.0040944,0.045387,-0.0028312,0.012767,0.0015416,0,0,0.042407,-0.020277,0,0.0040082,0,0,0,0.045437,-0.0028804,0.012767,1.8293,0.018441,0.042701,2.2645e-06,0.88,0.24,0
0.043435,0.0042876,0.044777,-0.0013823,0.013019,0.00072755,0,0,0.061656,-0.024961,0,0.0036062,0,0,0,0.044799,-0.0014037,0.013019,0.99763,0.018804,0.04106,2.0068e-06,0.92,0.24,0
0.046693,0.0047409,0.046086,0.002317,0.014521,0.00078329,0,0,0.082069,-0.03173,0,0.0040731,0,0,0,0.0461,0.002303,0.014521,1.0249,0.020975,0.039145,2.0993e-06,0.96,0.24,0
0.05,0.0048842,0.046184,0.0017861,0.014391,0.00068857,0,0,0.082662,-0.032773,0,0.0035806,0,0,0,0.046195,0.0017754,0.014391,0.88831,0.020787,0.039647,2.1422e-06,1,0.24,0
0,0,0.039038,0.016731,0.016731,0.0043535,0,0,0.058,-8.6736e-19,0,0.022638,0,0,0,0.039858,0.015911,0.016731,10.661,0.024167,0.023548,6.6786e-07,0,0.28,0
0.00232,0.00090552,0.038673,0.012998,0.015501,0.0043255,0,0,0.060247,-0.0065084,0,0.022492,0,0,0,0.039383,0.012289,0.015501,9.3103,0.022391,0.025639,8.1995e-07,0.04,0.28,0
0.0048198,0.0017235,0.039951,0.010547,0.01515,0.0040611,0,0,0.064485,-0.011966,0,0.021118,0,0,0,0.040502,0.0099966,0.01515,7.7208,0.021883,0.028283,1.0332e-06,0.08,0.28,0
0.0074788,0.0024374,0.041201,0.0086733,0.014962,0.0036768,0,0,0.068221,-0.016352,0,0.019119,0,0,0,0.041612,0.0082629,0.014962,6.3693,0.021612,0.030555,1.231e-06,0.12,0.28,0
0.010278,0.0030112,0.042522,0.0075514,0.015022,0.003041,0,0,0.071499,-0.019423,0,0.015813,0,0,0,0.042784,0.0072889,0.015022,4.933,0.021698,0.03233,1.4065e-06,0.16,0.28,0
0.013199,0.0033792,0.04361,0.0072849,0.015268,0.0019979,0,0,0.073687,-0.020757,0,0.010389,0,0,0,0.043719,0.0071753,0.015268,3.1387,0.022054,0.033245,1.5167e-06,0.2,0.28,0
0.016172,0.0034844,0.04313,0.0043218,0.014236,0.0016259,0,0,0.056149,-0.017184,0,0.0056644,0,0,0,0.043202,0.0042502,0.014236,2.3432,0.020563,0.035119,1.5819e-06,0.24,0.28,0
0.017691,0.0035828,0.044017,0.0028227,0.014052,5.291e-05,0,0,0.038955,-0.014598,0,0.00013757,0,0,0,0.044017,0.0028226,0.014052,0.07359,0.020297,0.036885,1.7949e-06,0.28,0.28,0
0.019289,0.003811,0.044609,0.0022995,0.014073,0.00040173,0,0,0.039698,-0.015305,0,0.0010445,0,0,0,0.044613,0.0022957,0.014073,0.54396,0.020327,0.03783,1.8991e-06,0.32,0.28,0
0.020866,0.003984,0.04397,0.0011627,0.01354,-0.00018909,0,0,0.039559,-0.01609,0,-0.00049162,0,0,0,0.04397,0.0011619,0.01354,-0.25308,0.019557,0.038156,1.8738e-06,0.36,0.28,0
0.022454,0.0041082,0.043918,0.00076726,0.013406,-0.00054979,0,0,0.039666,-0.01643,0,-0.0014295,0,0,0,0.043925,0.00076026,0.013406,-0.72985,0.019364,0.038435,1.8876e-06,0.4,0.28,0
0.02404,0.0041746,0.043813,0.00059245,0.013322,-0.00083191,0,0,0.039639,-0.016548,0,-0.002163,0,0,0,0.043829,0.00057644,0.013322,-1.1023,0.019242,0.038496,1.884e-06,0.44,0.28,0
0.025625,0.0041936,0.043779,0.00075077,0.013359,-0.00097709,0,0,0.039546,-0.01639,0,-0.0025404,0,0,0,0.043801,0.0007286,0.013359,-1.3002,0.019296,0.03835,1.8731e-06,0.48,0.28,0
0.027203,0.0041679,0.043744,0.0011252,0.013461,-0.0011261,0,0,0.039368,-0.016036,0,-0.0029279,0,0,0,0.043774,0.0010954,0.013461,-1.5125,0.019443,0.038034,1.8518e-06,0.52,0.28,0
0.028774,0.0040954,0.04376,0.0015793,0.013602,-0.0013524,0,0,0.039205,-0.015629,0,-0.0035162,0,0,0,0.043803,0.001536,0.013602,-1.8345,0.019647,0.037711,1.8337e-06,0.56,0.28,0
0.03034,0.0039742,0.043849,0.0017604,0.013683,-0.0015943,0,0,0.039216,-0.015499,0,-0.0041453,0,0,0,0.04391,0.0017001,0.013683,-2.1662,0.019764,0.037676,1.8391e-06,0.6,0.28,0
0.031911,0.0038173,0.044002,0.0013599,0.013609,-0.0016306,0,0,0.039512,-0.015923,0,-0.0042396,0,0,0,0.044064,0.0012977,0.013609,-2.1867,0.019657,0.038132,1.8792e-06,0.64,0.28,0
0.033501,0.003653,0.044222,0.00049187,0.013414,-0.0013507,0,0,0.04005,-0.016799,0,-0.0035118,0,0,0,0.044264,0.0004502,0.013414,-1.7675,0.019376,0.038983,1.9471e-06,0.68,0.28,0
0.035115,0.0035108,0.044483,-0.00053543,0.013184,-0.00084726,0,0,0.040688,-0.017836,0,-0.0022029,0,0,0,0.044499,-0.00055137,0.013184,-1.0778,0.019044,0.039992,2.0265e-06,0.72,0.28,0
0.036756,0.0034058,0.044686,-0.0015645,0.012936,-0.00030973,0,0,0.041274,-0.018851,0,-0.00080529,0,0,0,0.044688,-0.0015666,0.012936,-0.38367,0.018686,0.040975,2.0993e-06,0.76,0.28,0
0.038417,0.0033388,0.044765,-0.0024233,0.012703,6.6981e-05,0,0,0.041681,-0.019664,0,0.00017415,0,0,0,0.044765,-0.0024234,0.012703,0.081328,0.018348,0.041735,2.1479e-06,0.8,0.28,0
0.04009,0.0032949,0.044617,-0.0029815,0.012491,0.00035114,0,0,0.041764,-0.020114,0,0.00091297,0,0,0,0.04462,-0.002984,0.012491,0.42265,0.018042,0.042058,2.151e-06,0.84,0.28,0
0.041758,0.0032897,0.045263,-0.0030677,0.012659,0.00052525,0,0,0.042386,-0.020444,0,0.0013657,0,0,0,0.045269,-0.0030735,0.012659,0.62258,0.018285,0.042708,2.2483e-06,0.88,0.28,0
0.043481,0.0033364,0.04555,-7.0797e-05,0.013644,0.00096179,0,0,0.061422,-0.023772,0,0.0037546,0,0,0,0.045571,-9.1412e-05,0.013644,1.2274,0.019708,0.040672,2.082e-06,0.92,0.28,0
0.046672,0.0034839,0.046007,0.0028826,0.014667,0.00054346,0,0,0.081485,-0.030639,0,0.002826,0,0,0,0.046014,0.0028757,0.014667,0.72189,0.021186,0.038617,2.0547e-06,0.96,0.28,0
0.05,0.0035511,0.046479,0.0017948,0.014482,0.00032313,0,0,0.083192,-0.032987,0,0.0016803,0,0,0,0.046482,0.0017924,0.014482,0.4143,0.020919,0.039888,2.182e-06,1,0.28,0
0,0,0.039461,0.016912,0.016912,0.0030897,0,0,0.058628,4.3368e-19,0,0.016066,0,0,0,0.039877,0.016496,0.016912,7.6625,0.024428,0.023175,6.3861e-07,0,0.32,0
0.0023451,0.00064265,0.039094,0.013185,0.015684,0.0030363,0,0,0.060867,-0.0064963,0,0.015789,0,0,0,0.039445,0.012834,0.015684,6.5955,0.022655,0.025307,7.9694e-07,0.04,0.32,0
0.0048694,0.0012443,0.040386,0.01083,0.015365,0.0028198,0,0,0.065056,-0.011792,0,0.014663,0,0,0,0.040653,0.010563,0.015365,5.4012,0.022194,0.028,1.0166e-06,0.08,0.32,0
0.0075496,0.0017874,0.041579,0.0090664,0.015194,0.002478,0,0,0.068602,-0.015931,0,0.012885,0,0,0,0.041767,0.0088786,0.015194,4.3335,0.021946,0.03023,1.2127e-06,0.12,0.32,0
0.010358,0.0022483,0.042483,0.0080273,0.015153,0.0019629,0,0,0.071058,-0.018527,0,0.010207,0,0,0,0.042595,0.0079159,0.015153,3.2501,0.021888,0.031686,1.351e-06,0.16,0.32,0
0.013234,0.0025962,0.042858,0.0081993,0.015317,0.0013206,0,0,0.071606,-0.018506,0,0.006867,0,0,0,0.042908,0.0081491,0.015317,2.1789,0.022125,0.031787,1.371e-06,0.2,0.32,0
0.016086,0.0028627,0.043235,0.0058917,0.014738,0.00069488,0,0,0.05487,-0.015333,0,0.0028235,0,0,0,0.043249,0.0058781,0.014738,1.0927,0.021288,0.033876,1.5215e-06,0.24,0.32,0
0.017624,0.0030297,0.043615,0.0034816,0.014129,0.00067719,0,0,0.038332,-0.013841,0,0.0017607,0,0,0,0.043626,0.0034701,0.014129,0.96642,0.020408,0.036029,1.7123e-06,0.28,0.32,0
0.019153,0.0032007,0.043544,0.0023675,0.013773,0.00023421,0,0,0.038702,-0.014828,0,0.00060894,0,0,0,0.043546,0.0023662,0.013773,0.32588,0.019895,0.036825,1.7596e-06,0.32,0.32,0
0.02072,0.00335,0.044046,0.0016228,0.013701,-0.00016963,0,0,0.039449,-0.015701,0,-0.00044103,0,0,0,0.044047,0.0016222,0.013701,-0.22909,0.01979,0.037859,1.8606e-06,0.36,0.32,0
0.022308,0.0034508,0.044289,0.0010644,0.013606,-0.00060711,0,0,0.039888,-0.016304,0,-0.0015785,0,0,0,0.044297,0.0010559,0.013606,-0.80454,0.019653,0.038531,1.9217e-06,0.4,0.32,0
0.023911,0.0035097,0.044472,0.00079972,0.013581,-0.00089108,0,0,0.040157,-0.016616,0,-0.0023168,0,0,0,0.04449,0.00078155,0.013581,-1.1684,0.019618,0.03892,1.9608e-06,0.44,0.32,0
0.025521,0.0035324,0.044525,0.00076252,0.013586,-0.001033,0,0,0.04022,-0.016671,0,-0.0026857,0,0,0,0.044549,0.00073815,0.013586,-1.3514,0.019624,0.039007,1.9708e-06,0.48,0.32,0
0.027129,0.0035231,0.044511,0.0011812,0.013708,-0.0010881,0,0,0.040044,-0.016284,0,-0.0028291,0,0,0,0.044538,0.0011539,0.013708,-1.4376,0.0198,0.038667,1.9485e-06,0.52,0.32,0
0.028725,0.0034707,0.044525,0.0019325,0.013937,-0.0013162,0,0,0.039764,-0.015606,0,-0.0034223,0,0,0,0.044565,0.0018919,0.013937,-1.7684,0.020131,0.038106,1.914e-06,0.56,0.32,0
0.03031,0.0033544,0.044558,0.0021246,0.014005,-0.0016868,0,0,0.039719,-0.015444,0,-0.0043858,0,0,0,0.044625,0.0020576,0.014005,-2.2729,0.020229,0.038028,1.9132e-06,0.6,0.32,0
0.031902,0.0031742,0.044612,0.0012474,0.013758,-0.001848,0,0,0.04011,-0.016263,0,-0.0048048,0,0,0,0.04469,0.0011688,0.013758,-2.4358,0.019872,0.03879,1.9679e-06,0.64,0.32,0
0.033518,0.002969,0.044704,-8.7189e-05,0.013385,-0.0015471,0,0,0.040714,-0.017514,0,-0.0040224,0,0,0,0.044757,-0.00014056,0.013385,-1.9759,0.019334,0.039893,2.0422e-06,0.68,0.32,0
0.035159,0.0027836,0.044833,-0.0011609,0.013102,-0.00095741,0,0,0.041251,-0.018541,0,-0.0024893,0,0,0,0.044853,-0.0011808,0.013102,-1.192,0.018925,0.040812,2.1047e-06,0.72,0.32,0
0.036819,0.0026415,0.044864,-0.0020391,0.012847,-0.00039739,0,0,0.041622,-0.019353,0,-0.0010332,0,0,0,0.044868,-0.0020425,0.012847,-0.48539,0.018558,0.041518,2.1458e-06,0.76,0.32,0
0.038489,0.0025456,0.044766,-0.0027732,0.012598,0.0001056,0,0,0.041818,-0.019982,0,0.00027456,0,0,0,0.044766,-0.0027734,0.012598,0.12727,0.018197,0.042018,2.163e-06,0.8,0.32,0
0.040164,0.0024969,0.044507,-0.0031938,0.012394,0.00041207,0,0,0.041747,-0.020264,0,0.0010714,0,0,0,0.044511,-0.0031974,0.012394,0.49491,0.017903,0.042135,2.1443e-06,0.84,0.32,0
0.041829,0.0024589,0.045048,-0.0031137,0.01258,0.00047433,0,0,0.042208,-0.020402,0,0.0012332,0,0,0,0.045053,-0.0031184,0.01258,0.56422,0.018172,0.042552,2.2186e-06,0.88,0.32,0
0.043541,0.0023859,0.045302,0.00012995,0.01363,-0.00011583,0,0,0.06095,-0.023399,0,-0.00049741,0,0,0,0.045303,0.00012959,0.01363,-0.1551,0.019687,0.040255,2.0376e-06,0.92,0.32,0
0.046705,0.0022898,0.045704,0.0031277,0.01465,-6.6419e-05,0,0,0.080742,-0.029957,0,-0.00034538,0,0,0,0.045704,0.0031276,0.01465,-0.089381,0.02116,0.038144,1.998e-06,0.96,0.32,0
0.05,0.0022452,0.046146,0.0020597,0.014462,-0.00021453,0,0,0.082379,-0.032245,0,-0.0011155,0,0,0,0.046147,0.0020587,0.014462,-0.2788,0.020889,0.03938,2.1196e-06,1,0.32,0
0,0,0.039354,0.016866,0.016866,0.0018549,0,0,0.058469,-8.6736e-19,0,0.0096454,0,0,0,0.039506,0.016714,0.016866,4.6837,0.024362,0.022717,6.0199e-07,0,0.36,0
0.0023388,0.00038582,0.039004,0.013316,0.015696,0.0017703,0,0,0.060601,-0.0061874,0,0.0092055,0,0,0,0.039126,0.013195,0.015696,3.9238,0.022672,0.024775,7.5424e-07,0.04,0.36,0
0.0048481,0.00078012,0.040242,0.011095,0.015401,0.0015973,0,0,0.064586,-0.011196,0,0.0083062,0,0,0,0.040329,0.011008,0.015401,3.1275,0.022246,0.02739,9.6448e-07,0.08,0.36,0
0.0075056,0.0011629,0.041388,0.0094389,0.015248,0.0013166,0,0,0.067964,-0.015104,0,0.0068462,0,0,0,0.041443,0.0093847,0.015248,2.3557,0.022025,0.029565,1.1533e-06,0.12,0.36,0
0.010285,0.001529,0.042281,0.0084643,0.015224,0.0010614,0,0,0.07035,-0.017575,0,0.0055194,0,0,0,0.042315,0.008431,0.015224,1.796,0.02199,0.03105,1.2929e-06,0.16,0.36,0
0.013134,0.0018987,0.042691,0.0085937,0.015385,0.00093727,0,0,0.070995,-0.017659,0,0.0048738,0,0,0,0.042717,0.008568,0.015385,1.5734,0.022224,0.031302,1.3268e-06,0.2,0.36,0
0.015965,0.0022577,0.043105,0.0062101,0.014795,0.00088758,0,0,0.054498,-0.01488,0,0.0036654,0,0,0,0.043128,0.006187,0.014795,1.4193,0.02137,0.033529,1.4928e-06,0.24,0.36,0
0.017493,0.0024755,0.043575,0.003838,0.014224,0.00017983,0,0,0.038156,-0.013502,0,0.00046756,0,0,0,0.043576,0.0038372,0.014224,0.25929,0.020546,0.035697,1.6866e-06,0.28,0.36,0
0.019017,0.0026247,0.043574,0.0027123,0.013886,-0.00011325,0,0,0.038594,-0.014526,0,-0.00029444,0,0,0,0.043574,0.002712,0.013886,-0.15879,0.020057,0.036579,1.7455e-06,0.32,0.36,0
0.020581,0.0027279,0.044135,0.002013,0.013844,-0.00045467,0,0,0.039377,-0.015381,0,-0.0011821,0,0,0,0.044139,0.0020081,0.013844,-0.61837,0.019997,0.037636,1.8528e-06,0.36,0.36,0
0.022167,0.0028039,0.044484,0.0014973,0.013794,-0.00079143,0,0,0.039896,-0.015986,0,-0.0020577,0,0,0,0.044498,0.0014828,0.013794,-1.0544,0.019925,0.038371,1.9264e-06,0.4,0.36,0
0.023773,0.0028453,0.044831,0.0011149,0.013784,-0.0011538,0,0,0.040362,-0.01647,0,-0.0029999,0,0,0,0.044862,0.0010845,0.013784,-1.5108,0.01991,0.03901,1.9953e-06,0.44,0.36,0
0.025396,0.0028599,0.045245,0.00089214,0.013841,-0.0013052,0,0,0.040825,-0.016834,0,-0.0033935,0,0,0,0.045283,0.00085377,0.013841,-1.6841,0.019993,0.039568,2.0646e-06,0.48,0.36,0
0.027039,0.0028652,0.045344,0.00091114,0.013876,-0.0012634,0,0,0.040907,-0.016855,0,-0.0032848,0,0,0,0.04538,0.00087524,0.013876,-1.6274,0.020044,0.039637,2.0767e-06,0.52,0.36,0
0.028669,0.0028469,0.045525,0.0021654,0.014307,-0.0012293,0,0,0.040583,-0.015784,0,-0.0031961,0,0,0,0.045559,0.0021306,0.014307,-1.6226,0.020666,0.038801,2.0343e-06,0.56,0.36,0
0.030285,0.0027386,0.045792,0.0028961,0.014606,-0.001756,0,0,0.040541,-0.015223,0,-0.0045656,0,0,0,0.045864,0.0028243,0.014606,-2.3402,0.021098,0.038524,2.0371e-06,0.6,0.36,0
0.031912,0.0025162,0.045481,0.00085881,0.013902,-0.0019712,0,0,0.041052,-0.016956,0,-0.0051251,0,0,0,0.045568,0.0007719,0.013902,-2.5245,0.020081,0.039886,2.1083e-06,0.64,0.36,0
0.03357,0.0022519,0.045337,-0.00099217,0.013303,-0.0013486,0,0,0.041644,-0.018584,0,-0.0035063,0,0,0,0.045376,-0.0010314,0.013303,-1.6659,0.019216,0.041157,2.1715e-06,0.68,0.36,0
0.035244,0.0020275,0.045221,-0.0015875,0.01309,-0.00071243,0,0,0.04177,-0.019081,0,-0.0018523,0,0,0,0.045231,-0.0015984,0.01309,-0.87179,0.018908,0.041484,2.1774e-06,0.72,0.36,0
0.036911,0.0018576,0.044886,-0.0023188,0.01277,-0.00026931,0,0,0.041751,-0.019616,0,-0.00070021,0,0,0,0.044888,-0.0023204,0.01277,-0.32686,0.018446,0.041761,2.1609e-06,0.76,0.36,0
0.038584,0.0017402,0.044678,-0.003171,0.012452,8.084e-05,0,0,0.041894,-0.02031,0,0.00021018,0,0,0,0.044679,-0.0031711,0.012452,0.096799,0.017986,0.042262,2.1671e-06,0.8,0.36,0
0.040263,0.0016737,0.045122,-0.0031887,0.01258,0.00051097,0,0,0.042305,-0.020499,0,0.0013285,0,0,0,0.045128,-0.0031941,0.01258,0.60591,0.018171,0.04268,2.2327e-06,0.84,0.36,0
0.041968,0.0016576,0.044715,-0.0029649,0.012525,-0.00039944,0,0,0.041847,-0.020137,0,-0.0010386,0,0,0,0.044719,-0.0029682,0.012525,-0.47995,0.018092,0.042134,2.1644e-06,0.88,0.36,0
0.043611,0.0014644,0.044084,-0.00065235,0.013029,0.00017054,0,0,0.060213,-0.023715,0,-0.00017504,0,0,0,0.044093,-0.00066189,0.013029,0.12581,0.01882,0.03983,1.8913e-06,0.92,0.36,0
0.046785,0.0010874,0.045182,0.0030288,0.014463,-0.00028231,0,0,0.079868,-0.029729,0,-0.001468,0,0,0,0.045184,0.0030269,0.014463,-0.3837,0.020891,0.037761,1.9342e-06,0.96,0.36,0
0.05,0.00097151,0.045264,0.0025828,0.014354,-0.00055706,0,0,0.080366,-0.030605,0,-0.0028967,0,0,0,0.045272,0.0025756,0.014354,-0.74763,0.020734,0.038194,1.9709e-06,1,0.36,0
0,0,0.038726,0.016597,0.016597,0.00070988,0,0,0.057536,-2.1684e-18,0,0.0036914,0,0,0,0.038749,0.016574,0.016597,1.8355,0.023973,0.022163,5.5914e-07,0,0.4,0
0.0023014,0.00014765,0.03841,0.013394,0.015541,0.00059813,0,0,0.059459,-0.0055829,0,0.0031103,0,0,0,0.038425,0.01338,0.015541,1.3689,0.022449,0.024037,6.9388e-07,0.04,0.4,0
0.0047568,0.00034866,0.03953,0.011355,0.015265,0.00046065,0,0,0.063087,-0.010168,0,0.0023954,0,0,0,0.039537,0.011347,0.015265,0.93644,0.02205,0.02645,8.8045e-07,0.08,0.4,0
0.0073484,0.00057905,0.040651,0.0098106,0.015138,0.00019563,0,0,0.066332,-0.013852,0,0.0010173,0,0,0,0.040652,0.0098094,0.015138,0.36344,0.021867,0.028554,1.0567e-06,0.12,0.4,0
0.010063,0.00084233,0.041896,0.0088626,0.015228,6.7807e-06,0,0,0.069338,-0.016549,0,3.526e-05,0,0,0,0.041896,0.0088626,0.015228,0.011761,0.021996,0.030356,1.2264e-06,0.16,0.4,0
0.012896,0.0011835,0.043086,0.0085627,0.015495,0.00018579,0,0,0.071738,-0.018023,0,0.0009661,0,0,0,0.043087,0.0085617,0.015495,0.30833,0.022381,0.031634,1.3663e-06,0.2,0.4,0
0.015802,0.0016723,0.042749,0.0053505,0.01443,-0.00021146,0,0,0.054983,-0.015738,0,0.00014844,0,0,0,0.042765,0.005335,0.01443,-0.22135,0.020843,0.033879,1.4828e-06,0.24,0.4,0
0.017294,0.0019496,0.043903,0.0039099,0.014344,0.00058094,0,0,0.038427,-0.013564,0,0.0015104,0,0,0,0.043912,0.0039015,0.014344,0.83204,0.020719,0.035945,1.7241e-06,0.28,0.4,0
0.018877,0.0020386,0.044685,0.0032366,0.014377,-0.00041766,0,0,0.039401,-0.014482,0,-0.0010859,0,0,0,0.04469,0.0032324,0.014377,-0.57726,0.020766,0.03716,1.8584e-06,0.32,0.4,0
0.020446,0.0021195,0.044249,0.0022891,0.013961,-0.00051133,0,0,0.039373,-0.015174,0,-0.0013295,0,0,0,0.044255,0.0022829,0.013961,-0.69809,0.020166,0.037521,1.8534e-06,0.36,0.4,0
0.022027,0.0021719,0.044424,0.002097,0.013956,-0.00096519,0,0,0.039608,-0.015417,0,-0.0025095,0,0,0,0.044446,0.002075,0.013956,-1.3056,0.020159,0.037856,1.889e-06,0.4,0.4,0
0.023615,0.0021922,0.044716,0.001672,0.013917,-0.0015154,0,0,0.04004,-0.015918,0,-0.0039399,0,0,0,0.04477,0.0016187,0.013917,-2.0137,0.020102,0.038504,1.9553e-06,0.44,0.4,0
0.02523,0.0021857,0.045303,0.0010932,0.013919,-0.0019578,0,0,0.040799,-0.016673,0,-0.0050902,0,0,0,0.045389,0.0010067,0.013919,-2.5307,0.020105,0.03954,2.0712e-06,0.48,0.4,0
0.026879,0.0021747,0.046823,0.0013758,0.01446,-0.0019711,0,0,0.042072,-0.017009,0,-0.0051249,0,0,0,0.046908,0.0012905,0.01446,-2.4788,0.020886,0.040666,2.2722e-06,0.52,0.4,0
0.028595,0.002208,0.04762,0.002258,0.014963,-0.0025431,0,0,0.042453,-0.016517,0,-0.0066122,0,0,0,0.047762,0.0021158,0.014963,-3.1988,0.021614,0.04077,2.3509e-06,0.56,0.4,0
0.030275,0.0021365,0.047177,0.0016376,0.014644,-0.0017398,0,0,0.042293,-0.016909,0,-0.0045234,0,0,0,0.047244,0.0015712,0.014644,-2.1846,0.021153,0.040741,2.3056e-06,0.6,0.4,0
0.031979,0.0018178,0.047454,9.9892e-05,0.014266,-0.00062745,0,0,0.043144,-0.018416,0,-0.0016314,0,0,0,0.047462,9.1579e-05,0.014266,-0.759,0.020607,0.042112,2.4221e-06,0.64,0.4,0
0.033727,0.0014823,0.046606,-0.001075,0.013659,-0.00043694,0,0,0.042831,-0.019155,0,-0.001136,0,0,0,0.04661,-0.0010791,0.013659,-0.52499,0.01973,0.042292,2.3545e-06,0.68,0.4,0
0.035405,0.0012572,0.044855,-0.0018492,0.012902,-3.475e-06,0,0,0.04154,-0.019176,0,-9.0349e-06,0,0,0,0.044855,-0.0018492,0.012902,-0.004263,0.018636,0.041352,2.1355e-06,0.72,0.4,0
0.03705,0.0010723,0.044043,-0.0024999,0.012463,0.00010688,0,0,0.041054,-0.019452,0,0.00027789,0,0,0,0.044043,-0.0025001,0.012463,0.13157,0.018002,0.041155,2.0505e-06,0.76,0.4,0
0.03869,0.00092076,0.044015,-0.0031677,0.012254,0.00021157,0,0,0.041289,-0.020048,0,0.00055009,0,0,0,0.044016,-0.0031686,0.012254,0.25692,0.017701,0.041672,2.0738e-06,0.8,0.4,0
0.040353,0.00085701,0.043215,-0.0038217,0.011818,3.6072e-05,0,0,0.040816,-0.020332,0,9.3788e-05,0,0,0,0.043215,-0.0038218,0.011818,0.043939,0.01707,0.04149,1.9893e-06,0.84,0.4,0
0.041955,0.00084793,0.03843,-0.0017689,0.010998,-0.00037279,0,0,0.049048,-0.022508,0,-0.0014391,0,0,0,0.038434,-0.0017725,0.010998,-0.56571,0.015887,0.035585,1.5947e-06,0.88,0.4,0
0.044097,0.00048865,0.047823,-0.00037639,0.014234,0.0012385,0,0,0.060559,-0.02579,0,0.0048524,0,0,0,0.047857,-0.00041043,0.014234,1.5687,0.02056,0.042869,2.8832e-06,0.92,0.4,0
0.04708,-8.8543e-05,0.041886,0.003132,0.013505,7.9486e-05,0,0,0.073789,-0.026971,0,0.00041333,0,0,0,0.041886,0.0031318,0.013505,0.11751,0.019508,0.034749,1.5252e-06,0.96,0.4,0
0.05,-0.00020324,0.041353,0.0029098,0.013279,-0.00055144,0,0,0.072992,-0.026959,0,-0.0028675,0,0,0,0.041361,0.0029019,0.013279,-0.82164,0.01918,0.034463,1.4775e-06,1,0.4,0
0,0,0.037674,0.016146,0.016146,-0.00029238,0,0,0.055973,-4.3368e-19,0,-0.0015204,0,0,0,0.037678,0.016142,0.016146,-0.77797,0.023322,0.021534,5.1287e-07,0,0.44,0
0.0022389,-6.0816e-05,0.037398,0.013412,0.015243,-0.00041567,0,0,0.057604,-0.0047611,0,-0.0021615,0,0,0,0.037406,0.013405,0.015243,-0.99249,0.022018,0.023137,6.2256e-07,0.04,0.44,0
0.0046083,-3.3308e-05,0.038305,0.011582,0.014966,-0.00051261,0,0,0.06068,-0.0087981,0,-0.0026656,0,0,0,0.038314,0.011572,0.014966,-1.0985,0.021618,0.025217,7.7353e-07,0.08,0.44,0
0.0070934,5.4731e-05,0.039197,0.010125,0.014797,-0.0007835,0,0,0.063441,-0.012146,0,-0.0040742,0,0,0,0.039218,0.010104,0.014797,-1.5426,0.021373,0.027075,9.1695e-07,0.12,0.44,0
0.0096836,0.00020508,0.040208,0.009082,0.014787,-0.001082,0,0,0.066095,-0.014833,0,-0.0056263,0,0,0,0.040246,0.0090444,0.014787,-1.9885,0.021359,0.028763,1.0598e-06,0.16,0.44,0
0.012381,0.0004568,0.041608,0.0085118,0.015036,-0.0010145,0,0,0.069088,-0.016963,0,-0.0052751,0,0,0,0.041639,0.0084807,0.015036,-1.754,0.021719,0.030416,1.2219e-06,0.2,0.44,0
0.015211,0.00099868,0.048377,0.0064613,0.016452,-0.0019142,0,0,0.057538,-0.017554,0,-0.007452,0,0,0,0.04847,0.0063688,0.016452,-2.7682,0.023763,0.038078,2.5147e-06,0.24,0.44,0
0.017248,0.0013904,0.038833,0.0038737,0.012812,0.00034181,0,0,0.046561,-0.015796,0,0.0012731,0,0,0,0.038836,0.0038703,0.012812,0.57868,0.018506,0.031464,1.3902e-06,0.28,0.44,0
0.01876,0.0014662,0.043681,0.0027752,0.013937,0.00015445,0,0,0.038668,-0.01451,0,0.00040158,0,0,0,0.043682,0.0027746,0.013937,0.21633,0.020131,0.036625,1.7556e-06,0.32,0.44,0
0.020341,0.001514,0.044298,0.002926,0.014167,-0.00046044,0,0,0.03917,-0.014613,0,-0.0011971,0,0,0,0.044303,0.0029209,0.014167,-0.63756,0.020464,0.037061,1.8258e-06,0.36,0.44,0
0.021894,0.0015705,0.043746,0.0026411,0.013916,-0.00095691,0,0,0.038779,-0.014658,0,-0.002488,0,0,0,0.043768,0.0026188,0.013916,-1.3329,0.020101,0.036824,1.7743e-06,0.4,0.44,0
0.023444,0.0015718,0.043716,0.0022412,0.013787,-0.0016874,0,0,0.038908,-0.01501,0,-0.0043872,0,0,0,0.043785,0.0021727,0.013787,-2.3259,0.019915,0.037191,1.7993e-06,0.44,0.44,0
0.025007,0.0015261,0.04418,0.0017167,0.013769,-0.0023638,0,0,0.039534,-0.015668,0,-0.006146,0,0,0,0.044311,0.0015855,0.013769,-3.1764,0.019889,0.038123,1.8967e-06,0.48,0.44,0
0.026607,0.0015045,0.044064,0.0011634,0.013568,-0.0031944,0,0,0.039644,-0.016126,0,-0.0083054,0,0,0,0.0443,0.00092685,0.013568,-4.2351,0.019599,0.038636,1.9285e-06,0.52,0.44,0
0.028178,0.0015255,0.039845,0.0023516,0.012659,-0.0028142,0,0,0.048689,-0.018027,0,-0.0097266,0,0,0,0.040057,0.0021402,0.012659,-4.1744,0.018285,0.033908,1.6173e-06,0.56,0.44,0
0.030314,0.0013859,0.044803,0.0021912,0.014098,-0.0014482,0,0,0.053222,-0.021577,0,-0.0049967,0,0,0,0.044852,0.0021419,0.014098,-1.9146,0.020364,0.038179,2.5821e-06,0.6,0.44,0
0.032436,0.0010429,0.039111,0.00031464,0.011828,0.00022584,0,0,0.048732,-0.020073,0,0.00027083,0,0,0,0.039117,0.0003087,0.011828,0.15687,0.017084,0.034526,1.5975e-06,0.64,0.44,0
0.034039,0.0007195,0.043384,-0.0018841,0.01245,0.00020928,0,0,0.040214,-0.018634,0,0.00054413,0,0,0,0.043385,-0.001885,0.01245,0.26488,0.017983,0.040074,1.9363e-06,0.68,0.44,0
0.035653,0.0004934,0.043273,-0.0025716,0.01221,0.00060804,0,0,0.040381,-0.019217,0,0.0015809,0,0,0,0.043281,-0.0025797,0.01221,0.75974,0.017637,0.040542,1.9507e-06,0.72,0.44,0
0.03727,0.00030147,0.042443,-0.00321,0.01177,0.00091573,0,0,0.039875,-0.019474,0,0.0023809,0,0,0,0.042461,-0.0032284,0.01177,1.1487,0.017001,0.040339,1.8681e-06,0.76,0.44,0
0.038843,0.00013635,0.040544,-0.0038994,0.010993,0.0013817,0,0,0.038415,-0.01936,0,0.0035924,0,0,0,0.040586,-0.0039423,0.010993,1.779,0.015879,0.039253,1.6591e-06,0.8,0.44,0
0.040343,4.7182e-05,0.033973,-0.0034213,0.0091655,0.0012147,0,0,0.0441,-0.022132,0,0.0055485,0,0,0,0.034039,-0.0034871,0.0091655,2.2863,0.013239,0.033069,1.1801e-06,0.84,0.44,0
0.042239,-9.7705e-05,0.041925,-0.0025948,0.011799,0.0016427,0,0,0.054627,-0.025604,0,0.0068018,0,0,0,0.041996,-0.0026661,0.011799,2.3159,0.017043,0.039474,2.0101e-06,0.88,0.44,0
0.045002,-0.00065459,0.03664,0.0010196,0.011298,0.0012575,0,0,0.06589,-0.026724,0,0.006539,0,0,0,0.036684,0.00097524,0.011298,2.0194,0.016319,0.031829,1.0879e-06,0.92,0.44,0
0.04751,-0.0010703,0.035623,0.0030281,0.011595,0.00050862,0,0,0.062472,-0.022275,0,0.0026448,0,0,0,0.035631,0.0030202,0.011595,0.89378,0.016749,0.029281,9.2628e-07,0.96,0.44,0
0.05,-0.0011852,0.03558,0.0032212,0.01164,-0.00055262,0,0,0.062243,-0.02189,0,-0.0028736,0,0,0,0.035589,0.0032118,0.01164,-0.97812,0.016814,0.029094,9.1608e-07,1,0.44,0
0,0,0.036377,0.01559,0.01559,-0.0011213,0,0,0.054045,-4.3368e-19,0,-0.0058309,0,0,0,0.036437,0.01553,0.01559,-3.0789,0.022519,0.020877,4.6734e-07,0,0.48,0
0.0021618,-0.00023324,0.036139,0.013362,0.01485,-0.00123,0,0,0.05535,-0.0038687,0,-0.0063959,0,0,0,0.036205,0.013296,0.01485,-3.0822,0.02145,0.022173,5.5058e-07,0.04,0.48,0
0.004428,-0.00035519,0.036779,0.011743,0.014556,-0.0012519,0,0,0.057779,-0.0073159,0,-0.0065096,0,0,0,0.036841,0.01168,0.014556,-2.8554,0.021026,0.023853,6.6303e-07,0.08,0.48,0
0.0067841,-0.00039267,0.037289,0.010353,0.014293,-0.0014444,0,0,0.05979,-0.010242,0,-0.0075107,0,0,0,0.037366,0.010276,0.014293,-3.0607,0.020645,0.025322,7.6363e-07,0.12,0.48,0
0.0092112,-0.00034431,0.037548,0.0091543,0.014011,-0.0016767,0,0,0.061197,-0.012627,0,-0.0087187,0,0,0,0.037647,0.0090556,0.014011,-3.3678,0.020238,0.026464,8.405e-07,0.16,0.48,0
0.01168,-0.00017354,0.037558,0.0080902,0.013694,-0.0017115,0,0,0.062045,-0.014571,0,-0.0088996,0,0,0,0.037657,0.0079912,0.013694,-3.3129,0.019781,0.027265,8.894e-07,0.2,0.48,0
0.014175,0.00023952,0.038723,0.0064116,0.013541,-0.0020709,0,0,0.065475,-0.018535,0,-0.010769,0,0,0,0.038856,0.0062794,0.013541,-3.6522,0.019558,0.029621,1.0692e-06,0.24,0.48,0
0.016918,0.00072225,0.044411,0.0044987,0.014673,-0.0019739,0,0,0.053979,-0.018102,0,-0.0080818,0,0,0,0.044522,0.0043874,0.014673,-3.0624,0.021194,0.03611,1.9961e-06,0.28,0.48,0
0.018785,0.00087781,0.035815,0.0024764,0.011487,-0.00080668,0,0,0.043296,-0.015801,0,-0.0038419,0,0,0,0.035853,0.0024385,0.011487,-1.7627,0.016593,0.029935,1.1604e-06,0.32,0.48,0
0.020246,0.00095045,0.042041,0.0024386,0.013344,-0.0010496,0,0,0.037306,-0.014177,0,-0.002729,0,0,0,0.042069,0.0024108,0.013344,-1.5171,0.019274,0.035478,1.5807e-06,0.36,0.48,0
0.02177,0.00099928,0.043134,0.0025,0.01369,-0.00098207,0,0,0.038277,-0.014547,0,-0.0025534,0,0,0,0.043158,0.0024762,0.01369,-1.3837,0.019775,0.036395,1.7065e-06,0.4,0.48,0
0.023308,0.00099138,0.042641,0.002196,0.013451,-0.0010945,0,0,0.037947,-0.014632,0,-0.0028458,0,0,0,0.042671,0.0021664,0.013451,-1.549,0.019429,0.036206,1.6631e-06,0.44,0.48,0
0.024805,0.00093224,0.040564,0.0014901,0.012616,-0.0012029,0,0,0.036332,-0.014464,0,-0.0031274,0,0,0,0.040601,0.0014531,0.012616,-1.7616,0.018224,0.034931,1.4591e-06,0.48,0.48,0
0.026215,0.00088459,0.033025,0.0010684,0.010228,-0.0011686,0,0,0.040369,-0.015953,0,-0.0026653,0,0,0,0.03311,0.00098327,0.010228,-1.4544,0.014774,0.028648,9.8004e-07,0.52,0.48,0
0.027932,0.00078509,0.038941,0.00072948,0.011901,-0.0014445,0,0,0.048837,-0.019791,0,-0.0031939,0,0,0,0.03906,0.00061015,0.011901,-1.5754,0.017191,0.034234,1.5265e-06,0.56,0.48,0
0.030358,0.00041036,0.033615,0.0015751,0.010557,-0.00051896,0,0,0.059951,-0.023353,0,-0.0026986,0,0,0,0.033624,0.0015667,0.010557,-0.92771,0.015249,0.02864,8.179e-07,0.6,0.48,0
0.032728,0.00022597,0.03548,-0.0020399,0.010032,-0.00018349,0,0,0.046274,-0.021176,0,-0.0016791,0,0,0,0.035499,-0.0020581,0.010032,-0.57586,0.014491,0.033215,1.1913e-06,0.64,0.48,0
0.03432,-8.4397e-06,0.032157,-0.0024067,0.008925,8.74e-05,0,0,0.040268,-0.020363,0,0.00011356,0,0,0,0.032157,-0.0024076,0.008925,0.063317,0.012892,0.03053,1.0905e-06,0.68,0.48,0
0.03595,-0.00028017,0.032381,-0.0032335,0.0087444,0.00077062,0,0,0.040971,-0.021473,0,0.003281,0,0,0,0.032404,-0.0032563,0.0087444,1.4759,0.012631,0.031437,1.1393e-06,0.72,0.48,0
0.037597,-0.00048566,0.032215,-0.0037131,0.0085507,0.0017691,0,0,0.041019,-0.022047,0,0.0072795,0,0,0,0.032323,-0.0038203,0.0085507,3.2308,0.012351,0.031827,1.143e-06,0.76,0.48,0
0.039231,-0.00062807,0.032092,-0.003797,0.0084885,0.0024015,0,0,0.040913,-0.022387,0,0.010073,0,0,0,0.032297,-0.0040016,0.0084885,4.389,0.012261,0.031963,1.1408e-06,0.8,0.48,0
0.04087,-0.0008758,0.035597,-0.0045478,0.0093146,0.0027772,0,0,0.047845,-0.024505,0,0.010946,0,0,0,0.035801,-0.0047523,0.0093146,4.1744,0.013454,0.035672,1.2826e-06,0.84,0.48,0
0.043334,-0.0012789,0.03186,-0.0013344,0.0091578,0.002347,0,0,0.059027,-0.02728,0,0.012205,0,0,0,0.032026,-0.0014995,0.0091578,4.0244,0.013228,0.029669,7.8127e-07,0.88,0.48,0
0.045593,-0.0016493,0.031318,0.0011394,0.0097371,0.001033,0,0,0.056109,-0.022354,0,0.0053716,0,0,0,0.031353,0.0011041,0.0097371,1.9582,0.014065,0.026988,6.7233e-07,0.92,0.48,0
0.047822,-0.0018705,0.031754,0.0034598,0.010564,0.00047992,0,0,0.055093,-0.018471,0,0.0024956,0,0,0,0.031762,0.0034516,0.010564,0.97147,0.015259,0.025509,6.3434e-07,0.96,0.48,0
0.05,-0.0019544,0.031596,0.003934,0.010659,-0.00040328,0,0,0.054437,-0.017485,0,-0.002097,0,0,0,0.031602,0.0039282,0.010659,-0.83505,0.015397,0.024998,6.1047e-07,1,0.48,0
0,0,0.035041,0.015018,0.015018,-0.0017803,0,0,0.052061,-2.1684e-19,0,-0.0092577,0,0,0,0.035198,0.014861,0.015018,-5.0416,0.021692,0.02026,4.27e-07,0,0.52,0
0.0020825,-0.00037031,0.034843,0.013241,0.014425,-0.0018491,0,0,0.053087,-0.0030792,0,-0.0096154,0,0,0,0.035,0.013084,0.014425,-4.8573,0.020837,0.021278,4.8813e-07,0.04,0.52,0
0.004247,-0.00061858,0.035274,0.011805,0.014124,-0.0017597,0,0,0.05499,-0.0060278,0,-0.0091505,0,0,0,0.035405,0.011674,0.014124,-4.2644,0.020401,0.022606,5.6988e-07,0.08,0.52,0
0.0064816,-0.00076462,0.035537,0.010484,0.013806,-0.0017793,0,0,0.0565,-0.0086375,0,-0.0092524,0,0,0,0.035663,0.010359,0.013806,-4.0422,0.019943,0.023769,6.4101e-07,0.12,0.52,0
0.0087669,-0.00080506,0.035599,0.0092896,0.013466,-0.0017717,0,0,0.057544,-0.01086,0,-0.0092126,0,0,0,0.035717,0.0091708,0.013466,-3.8352,0.019452,0.024681,6.9396e-07,0.16,0.52,0
0.011085,-0.00070887,0.035662,0.0081079,0.013131,-0.0017178,0,0,0.05858,-0.01306,0,-0.0089326,0,0,0,0.035768,0.0080012,0.013131,-3.5537,0.018967,0.025591,7.4551e-07,0.2,0.52,0
0.013453,-0.00048412,0.034992,0.0058565,0.012255,-0.0016568,0,0,0.059118,-0.016635,0,-0.0086152,0,0,0,0.035086,0.0057626,0.012255,-3.2441,0.017701,0.026677,7.838e-07,0.24,0.52,0
0.015815,-0.00011374,0.035441,0.0042177,0.011898,-0.0025329,0,0,0.061213,-0.019968,0,-0.013171,0,0,0,0.035645,0.0040135,0.011898,-4.6078,0.017186,0.028519,8.915e-07,0.28,0.52,0
0.01835,0.00022395,0.039274,0.0027998,0.012622,-0.0026716,0,0,0.048654,-0.017365,0,-0.010407,0,0,0,0.039477,0.0025963,0.012622,-4.3591,0.018232,0.033035,1.4269e-06,0.32,0.52,0
0.020002,0.00037984,0.03507,0.0025386,0.011282,-0.0017496,0,0,0.041231,-0.015601,0,-0.007184,0,0,0,0.035186,0.0024221,0.011282,-3.5541,0.016297,0.02936,1.2056e-06,0.36,0.52,0
0.021649,0.0004067,0.034808,0.0023366,0.011143,-0.00088081,0,0,0.041018,-0.01549,0,-0.0032055,0,0,0,0.034832,0.0023123,0.011143,-1.6207,0.016096,0.029127,1.1818e-06,0.4,0.52,0
0.023283,0.0004013,0.034005,0.0020761,0.010824,6.742e-05,0,0,0.04018,-0.01537,0,0.0009019,0,0,0,0.034015,0.0020667,0.010824,0.45307,0.015635,0.028594,1.1086e-06,0.44,0.52,0
0.024863,0.00036895,0.032564,0.0016793,0.010273,0.00082252,0,0,0.038638,-0.015302,0,0.0045773,0,0,0,0.032647,0.0015964,0.010273,2.3442,0.014839,0.027754,9.8802e-07,0.48,0.52,0
0.026374,0.00023736,0.034901,0.0010019,0.010771,0.0011389,0,0,0.043852,-0.017309,0,0.0055778,0,0,0,0.034978,0.00092449,0.010771,2.3589,0.015558,0.030356,1.0538e-06,0.52,0.52,0
0.028615,-0.00010893,0.029895,0.0011207,0.0093048,0.0014991,0,0,0.053535,-0.021279,0,0.0077955,0,0,0,0.029973,0.0010428,0.0093048,2.9743,0.01344,0.025811,5.8771e-07,0.56,0.52,0
0.030657,-0.00048234,0.027522,0.00042458,0.0083839,0.00077603,0,0,0.049759,-0.020694,0,0.0040354,0,0,0,0.027544,0.00040237,0.0083839,1.6391,0.01211,0.024161,4.6685e-07,0.6,0.52,0
0.032595,-0.00068126,0.026384,-0.0008981,0.0076459,0.00017725,0,0,0.04872,-0.022214,0,0.00092172,0,0,0,0.026385,-0.00089925,0.0076459,0.37223,0.011044,0.024173,4.3171e-07,0.64,0.52,0
0.034555,-0.00090956,0.025042,-0.0024271,0.0067844,0.00062559,0,0,0.047469,-0.02395,0,0.0032531,0,0,0,0.025056,-0.0024413,0.0067844,1.304,0.0097997,0.024239,3.9044e-07,0.68,0.52,0
0.036393,-0.0012244,0.02347,-0.0036584,0.0059435,0.0012894,0,0,0.045569,-0.024965,0,0.0067051,0,0,0,0.023531,-0.0037195,0.0059435,2.7152,0.0085851,0.02393,3.3684e-07,0.72,0.52,0
0.0382,-0.0014623,0.02345,-0.0037166,0.0059201,0.0019126,0,0,0.045579,-0.025055,0,0.0099455,0,0,0,0.023584,-0.0038506,0.0059201,4.0074,0.0085513,0.024085,3.4012e-07,0.76,0.52,0
0.040039,-0.0016546,0.024667,-0.0037851,0.0062647,0.0020363,0,0,0.047847,-0.026129,0,0.010589,0,0,0,0.024812,-0.0039301,0.0062647,4.0728,0.009049,0.02524,3.9497e-07,0.8,0.52,0
0.042028,-0.0019704,0.025607,-0.0035473,0.006618,0.0021363,0,0,0.049372,-0.02643,0,0.011109,0,0,0,0.025763,-0.003703,0.006618,4.1685,0.0095594,0.025897,4.3827e-07,0.84,0.52,0
0.043989,-0.0022801,0.026967,-0.0011114,0.0077566,0.0011742,0,0,0.049947,-0.023057,0,0.006106,0,0,0,0.027016,-0.0011604,0.0077566,2.3905,0.011204,0.024943,4.6732e-07,0.88,0.52,0
0.046024,-0.0024429,0.028513,0.0020094,0.0091569,0.00071044,0,0,0.050327,-0.018583,0,0.0036943,0,0,0,0.028532,0.0019904,0.0091569,1.5344,0.013227,0.023783,4.8529e-07,0.92,0.52,0
0.048015,-0.002548,0.028847,0.0035861,0.00973,0.00029688,0,0,0.049705,-0.015974,0,0.0015438,0,0,0,0.028851,0.0035826,0.00973,0.67325,0.014054,0.022824,4.6459e-07,0.96,0.52,0
0.05,-0.0025841,0.029117,0.0043218,0.010032,-0.00017338,0,0,0.049622,-0.014846,0,-0.0009016,0,0,0,0.029118,0.0043205,0.010032,-0.40062,0.01449,0.022493,4.5989e-07,1,0.52,0
0,0,0.033842,0.014504,0.014504,-0.0023056,0,0,0.050279,-1.0842e-18,0,-0.011989,0,0,0,0.034113,0.014233,0.014504,-6.706,0.02095,0.019746,3.9518e-07,0,0.56,0
0.0020112,-0.00047957,0.033684,0.013048,0.01402,-0.002322,0,0,0.051128,-0.0025261,0,-0.012075,0,0,0,0.033942,0.01279,0.01402,-6.3414,0.020251,0.020565,4.4132e-07,0.04,0.56,0
0.0040902,-0.00083741,0.034008,0.011736,0.013723,-0.002117,0,0,0.05274,-0.0051667,0,-0.011008,0,0,0,0.034207,0.011536,0.013723,-5.3818,0.019822,0.02166,5.0405e-07,0.08,0.56,0
0.0062304,-0.0010837,0.034202,0.010443,0.013393,-0.001946,0,0,0.054102,-0.0076718,0,-0.010119,0,0,0,0.03436,0.010284,0.013393,-4.6516,0.019346,0.022682,5.6154e-07,0.12,0.56,0
0.0084184,-0.0012131,0.034248,0.0091757,0.013027,-0.0017384,0,0,0.055174,-0.010014,0,-0.0090396,0,0,0,0.034368,0.0090558,0.013027,-3.9474,0.018817,0.023579,6.0938e-07,0.16,0.56,0
0.010644,-0.0012183,0.034023,0.0077195,0.012523,-0.0014706,0,0,0.0559,-0.012488,0,-0.0076471,0,0,0,0.034105,0.0076375,0.012523,-3.1901,0.018088,0.024394,6.4593e-07,0.2,0.56,0
0.01289,-0.0010913,0.03362,0.006143,0.011929,-0.0013255,0,0,0.056398,-0.015044,0,-0.0068925,0,0,0,0.033684,0.0060792,0.011929,-2.7553,0.017231,0.025195,6.7449e-07,0.24,0.56,0
0.015156,-0.0008752,0.032095,0.0038778,0.010792,-0.0011951,0,0,0.055387,-0.017976,0,-0.0062146,0,0,0,0.032145,0.0038273,0.010792,-2.421,0.015588,0.025558,6.4757e-07,0.28,0.56,0
0.017321,-0.00055212,0.030787,0.0024026,0.0099568,-0.001802,0,0,0.054157,-0.019641,0,-0.0093706,0,0,0,0.030901,0.0022887,0.0099568,-3.6182,0.014382,0.025652,6.1293e-07,0.32,0.56,0
0.019489,-0.00029767,0.02952,0.0020492,0.0094708,-0.00103,0,0,0.052128,-0.019296,0,-0.005356,0,0,0,0.029559,0.0020106,0.0094708,-2.1443,0.01368,0.024679,5.4079e-07,0.36,0.56,0
0.021492,-0.00023994,0.027749,0.0017743,0.008857,-0.00026506,0,0,0.049119,-0.018415,0,-0.0013783,0,0,0,0.027752,0.0017716,0.008857,-0.5846,0.012793,0.023261,4.4999e-07,0.4,0.56,0
0.023418,-0.00023818,0.027078,0.0015833,0.0085985,0.000758,0,0,0.048047,-0.018239,0,0.0039416,0,0,0,0.027101,0.0015608,0.0085985,1.7015,0.01242,0.022849,4.2242e-07,0.44,0.56,0
0.025336,-0.00029194,0.02749,0.0013819,0.0086616,0.0015275,0,0,0.048954,-0.018927,0,0.0079428,0,0,0,0.027579,0.0012929,0.0086616,3.3369,0.012511,0.023486,4.5119e-07,0.48,0.56,0
0.027335,-0.00054522,0.027408,0.00080864,0.0084651,0.002226,0,0,0.049252,-0.019907,0,0.011576,0,0,0,0.027593,0.00062363,0.0084651,4.7509,0.012227,0.024029,4.6512e-07,0.52,0.56,0
0.029276,-0.00091719,0.027306,0.00091646,0.0084668,0.0016722,0,0,0.048982,-0.019631,0,0.0086954,0,0,0,0.027412,0.00081092,0.0084668,3.6113,0.01223,0.023718,4.5231e-07,0.56,0.56,0
0.031253,-0.0012452,0.027579,0.00099103,0.0085711,0.0019077,0,0,0.049421,-0.019708,0,0.0099198,0,0,0,0.027716,0.00085486,0.0085711,4.083,0.01238,0.023953,4.6683e-07,0.6,0.56,0
0.033229,-0.0015512,0.025985,-0.0013864,0.0073795,0.0021373,0,0,0.048374,-0.022791,0,0.011114,0,0,0,0.026151,-0.0015523,0.0073795,4.4381,0.010659,0.024491,4.302e-07,0.64,0.56,0
0.035123,-0.0019244,0.024725,-0.0033607,0.0064092,0.0027409,0,0,0.04762,-0.025402,0,0.014253,0,0,0,0.02499,-0.0036257,0.0064092,5.5221,0.0092577,0.025147,4.0031e-07,0.68,0.56,0
0.037039,-0.0022774,0.023866,-0.0036098,0.0060767,0.0023287,0,0,0.046251,-0.025185,0,0.012109,0,0,0,0.024061,-0.0038058,0.0060767,4.8105,0.0087775,0.024472,3.6015e-07,0.72,0.56,0
0.038823,-0.0024901,0.02284,-0.0035595,0.0057842,0.00187,0,0,0.044345,-0.024293,0,0.0097242,0,0,0,0.022972,-0.0036913,0.0057842,4.0317,0.0083549,0.023411,3.1386e-07,0.76,0.56,0
0.040587,-0.0027184,0.022938,-0.0035516,0.0058158,0.00090414,0,0,0.044517,-0.024355,0,0.0047015,0,0,0,0.022968,-0.0035825,0.0058158,1.9526,0.0084006,0.023318,3.1286e-07,0.8,0.56,0
0.042384,-0.0029902,0.0245,-0.002258,0.0066726,-0.00010275,0,0,0.046351,-0.02322,0,-0.00053432,0,0,0,0.0245,-0.0022584,0.0066726,-0.22002,0.0096382,0.023597,3.6356e-07,0.84,0.56,0
0.044295,-0.0031234,0.02568,-0.00051856,0.0075486,-0.00071829,0,0,0.047143,-0.020975,0,-0.0037351,0,0,0,0.0257,-0.00053824,0.0075486,-1.5693,0.010903,0.023274,3.9382e-07,0.88,0.56,0
0.046156,-0.0031359,0.026726,0.0015847,0.0084933,-9.8813e-05,0,0,0.047406,-0.017962,0,-0.00051383,0,0,0,0.026727,0.0015843,0.0084933,-0.22518,0.012268,0.022498,4.043e-07,0.92,0.56,0
0.048087,-0.0031485,0.02803,0.0038005,0.0095491,-3.0775e-05,0,0,0.04805,-0.014946,0,-0.00016003,0,0,0,0.02803,0.0038005,0.0095491,-0.072775,0.013793,0.021928,4.1864e-07,0.96,0.56,0
0.05,-0.0031421,0.028157,0.0043902,0.009764,3.0729e-05,0,0,0.047821,-0.013972,0,0.00015979,0,0,0,0.028157,0.0043902,0.009764,0.07408,0.014104,0.021587,4.1072e-07,1,0.56,0
0,0,0.032878,0.014091,0.014091,-0.0027519,0,0,0.048847,6.5052e-19,0,-0.01431,0,0,0,0.033273,0.013696,0.014091,-8.1641,0.020353,0.019383,3.7347e-07,0,0.6,0
0.0019539,-0.0005724,0.032752,0.012794,0.013664,-0.0027181,0,0,0.04963,-0.0022621,0,-0.014134,0,0,0,0.033116,0.01243,0.013664,-7.6183,0.019737,0.020097,4.116e-07,0.04,0.6,0
0.0039704,-0.0010319,0.033057,0.011526,0.013375,-0.0024203,0,0,0.051173,-0.0048077,0,-0.012586,0,0,0,0.033326,0.011257,0.013375,-6.3352,0.019319,0.02109,4.6542e-07,0.08,0.6,0
0.0060478,-0.0013784,0.033273,0.010201,0.013042,-0.0020956,0,0,0.052601,-0.0073872,0,-0.010897,0,0,0,0.033462,0.010012,0.013042,-5.1479,0.018839,0.022091,5.1876e-07,0.12,0.6,0
0.0081784,-0.0016062,0.033343,0.0088285,0.012651,-0.0017061,0,0,0.053797,-0.0099393,0,-0.0088715,0,0,0,0.033461,0.0087104,0.012651,-3.9621,0.018274,0.023034,5.6624e-07,0.16,0.6,0
0.010351,-0.0017079,0.033255,0.0073958,0.012195,-0.0012667,0,0,0.054755,-0.012478,0,-0.0065869,0,0,0,0.033317,0.0073339,0.012195,-2.7977,0.017615,0.023925,6.0667e-07,0.2,0.6,0
0.012559,-0.0016876,0.032884,0.005789,0.011602,-0.00078841,0,0,0.055333,-0.015113,0,-0.0040997,0,0,0,0.032907,0.0057661,0.011602,-1.6653,0.016758,0.024744,6.3463e-07,0.24,0.6,0
0.014778,-0.0015518,0.032508,0.0043062,0.011044,-0.00037661,0,0,0.055805,-0.017519,0,-0.0019584,0,0,0,0.032513,0.0043011,0.011044,-0.76496,0.015953,0.025517,6.5668e-07,0.28,0.6,0
0.017023,-0.0013473,0.031831,0.0024333,0.010279,4.2888e-05,0,0,0.056035,-0.0204,0,0.00022302,0,0,0,0.031832,0.0024332,0.010279,0.083587,0.014848,0.026366,6.6791e-07,0.32,0.6,0
0.019261,-0.0011639,0.031064,0.0010738,0.0096413,0.00016389,0,0,0.055699,-0.022276,0,0.00085223,0,0,0,0.031065,0.0010729,0.0096413,0.3131,0.013926,0.026757,6.5449e-07,0.36,0.6,0
0.021479,-0.0010665,0.03054,0.000917,0.0094372,0.00054161,0,0,0.054868,-0.022152,0,0.0028164,0,0,0,0.03055,0.0009071,0.0094372,1.0471,0.013631,0.026431,6.2607e-07,0.4,0.6,0
0.023651,-0.0010578,0.030027,0.00072504,0.0092255,0.0010714,0,0,0.054083,-0.022101,0,0.0055711,0,0,0,0.030066,0.00068592,0.0092255,2.0912,0.013326,0.026176,6.0153e-07,0.44,0.6,0
0.025806,-0.0011452,0.029532,0.00039818,0.0089789,0.001501,0,0,0.053437,-0.02231,0,0.0078049,0,0,0,0.029609,0.00032106,0.0089789,2.9415,0.01297,0.026061,5.8234e-07,0.48,0.6,0
0.027925,-0.0013552,0.029275,0.00092898,0.0090612,0.0016277,0,0,0.052556,-0.021144,0,0.0084641,0,0,0,0.029368,0.00083582,0.0090612,3.2757,0.013088,0.025437,5.5698e-07,0.52,0.6,0
0.03001,-0.0016794,0.029239,0.0015715,0.009243,0.0019452,0,0,0.051989,-0.019946,0,0.010115,0,0,0,0.029375,0.0014354,0.009243,4.0021,0.013351,0.024969,5.4384e-07,0.56,0.6,0
0.032085,-0.002059,0.028643,0.0002711,0.0086741,0.0022427,0,0,0.051918,-0.021848,0,0.011662,0,0,0,0.028819,9.4905e-05,0.0086741,4.492,0.012529,0.025539,5.4142e-07,0.6,0.6,0
0.034164,-0.0025046,0.029253,-0.0012378,0.0084045,0.0031843,0,0,0.054205,-0.02507,0,0.016559,0,0,0,0.029582,-0.0015669,0.0084045,5.8989,0.01214,0.027551,6.1917e-07,0.64,0.6,0
0.036421,-0.0029417,0.032864,-0.0037593,0.0087314,0.0034897,0,0,0.043916,-0.022191,0,0.013444,0,0,0,0.033205,-0.0041004,0.0087314,5.6176,0.012612,0.032831,1.0215e-06,0.68,0.6,0
0.037927,-0.0032392,0.029509,-0.0032162,0.0078878,0.002714,0,0,0.037477,-0.020447,0,0.011158,0,0,0,0.029777,-0.0034846,0.0078878,5.285,0.011394,0.029311,8.8624e-07,0.72,0.6,0
0.039419,-0.0034058,0.029434,-0.00315,0.0078852,0.0017624,0,0,0.037351,-0.020069,0,0.0071699,0,0,0,0.029547,-0.0032628,0.0078852,3.482,0.01139,0.028914,8.6865e-07,0.76,0.6,0
0.040915,-0.0036031,0.029472,-0.0026499,0.0080468,0.00041933,0,0,0.037138,-0.019435,0,0.0018253,0,0,0,0.02948,-0.0026578,0.0080468,0.89898,0.011623,0.028361,8.5254e-07,0.8,0.6,0
0.04239,-0.003828,0.029389,-0.0016293,0.0083279,-0.00063231,0,0,0.036506,-0.018181,0,-0.0027184,0,0,0,0.029407,-0.0016472,0.0083279,-1.3837,0.012029,0.027479,8.185e-07,0.84,0.6,0
0.043836,-0.0039581,0.032826,-0.0006667,0.0096478,-0.001397,0,0,0.042192,-0.018305,0,-0.0055107,0,0,0,0.032888,-0.00072882,0.0096478,-2.5239,0.013936,0.029819,9.1858e-07,0.88,0.6,0
0.046007,-0.0038799,0.029338,0.0015864,0.0092773,-0.0011524,0,0,0.052158,-0.019997,0,-0.0059924,0,0,0,0.029386,0.0015386,0.0092773,-2.3737,0.013401,0.024897,5.4209e-07,0.92,0.6,0
0.048009,-0.0037437,0.028866,0.0033732,0.0096719,-0.00016096,0,0,0.049906,-0.016377,0,-0.00083697,0,0,0,0.028868,0.0033721,0.0096719,-0.36173,0.013971,0.023002,4.7057e-07,0.96,0.6,0
0.05,-0.0037018,0.029397,0.0047626,0.010248,0.00020142,0,0,0.049788,-0.014262,0,0.0010474,0,0,0,0.029399,0.004761,0.010248,0.46842,0.014803,0.022404,4.6288e-07,1,0.6,0
0,0,0.032179,0.013791,0.013791,-0.0031757,0,0,0.047808,-4.3368e-19,0,-0.016514,0,0,0,0.032712,0.013258,0.013791,-9.5277,0.01992,0.019193,3.6217e-07,0,0.64,0
0.0019123,-0.00066054,0.032068,0.012497,0.01337,-0.0031017,0,0,0.048617,-0.0022689,0,-0.016129,0,0,0,0.032548,0.012017,0.01337,-8.7934,0.019312,0.019889,3.9781e-07,0.04,0.64,0
0.0038894,-0.001222,0.032411,0.011194,0.013082,-0.0027428,0,0,0.050257,-0.0049071,0,-0.014263,0,0,0,0.03276,0.010845,0.013082,-7.2483,0.018896,0.020886,4.4992e-07,0.08,0.64,0
0.0059328,-0.0016746,0.032692,0.0097939,0.012746,-0.0023009,0,0,0.051861,-0.0076753,0,-0.011965,0,0,0,0.032921,0.009565,0.012746,-5.6815,0.018411,0.02194,5.0416e-07,0.12,0.64,0
0.0080383,-0.0020083,0.032877,0.0083486,0.012368,-0.001773,0,0,0.053325,-0.01045,0,-0.0092196,0,0,0,0.033005,0.0082211,0.012368,-4.113,0.017864,0.022992,5.5646e-07,0.16,0.64,0
0.010199,-0.0022166,0.032939,0.0068569,0.011939,-0.0011737,0,0,0.054601,-0.013213,0,-0.0061031,0,0,0,0.032992,0.0068042,0.011939,-2.5713,0.017245,0.024035,6.0488e-07,0.2,0.64,0
0.012406,-0.0023004,0.032927,0.0053512,0.011484,-0.00055201,0,0,0.055754,-0.015944,0,-0.0028705,0,0,0,0.032939,0.0053401,0.011484,-1.1463,0.016587,0.025097,6.508e-07,0.24,0.64,0
0.014659,-0.0022767,0.032825,0.0037569,0.010975,4.3165e-05,0,0,0.056812,-0.018766,0,0.00022446,0,0,0,0.032825,0.0037568,0.010975,0.08508,0.015852,0.026216,6.9431e-07,0.28,0.64,0
0.016951,-0.0021841,0.032645,0.0021815,0.010448,0.00047419,0,0,0.057712,-0.021493,0,0.0024658,0,0,0,0.032652,0.0021741,0.010448,0.89158,0.015091,0.027298,7.3033e-07,0.32,0.64,0
0.019276,-0.0020797,0.032422,0.00097794,0.01002,0.00077429,0,0,0.058246,-0.02351,0,0.0040263,0,0,0,0.032442,0.00095888,0.01002,1.4097,0.014474,0.028071,7.4982e-07,0.36,0.64,0
0.021611,-0.0020121,0.032201,0.00035079,0.0097656,0.0010218,0,0,0.058332,-0.024478,0,0.0053134,0,0,0,0.032234,0.00031805,0.0097656,1.8356,0.014106,0.028396,7.5218e-07,0.4,0.64,0
0.023943,-0.0020063,0.031966,0.00012752,0.0096279,0.0013285,0,0,0.058078,-0.024701,0,0.0069082,0,0,0,0.032021,7.2186e-05,0.0096279,2.3852,0.013907,0.028403,7.4352e-07,0.44,0.64,0
0.026257,-0.0020767,0.031716,0.00023343,0.0095847,0.0016243,0,0,0.05754,-0.024313,0,0.0084461,0,0,0,0.031799,0.00014985,0.0095847,2.9456,0.013845,0.028144,7.2625e-07,0.48,0.64,0
0.028546,-0.0022367,0.031424,0.00070172,0.0096376,0.0019149,0,0,0.056643,-0.023233,0,0.0099577,0,0,0,0.031542,0.00058282,0.0096376,3.553,0.013921,0.027571,6.9804e-07,0.52,0.64,0
0.030789,-0.0025129,0.031219,0.0012822,0.0097503,0.0020511,0,0,0.055818,-0.022017,0,0.010666,0,0,0,0.031359,0.0011424,0.0097503,3.9013,0.014084,0.026963,6.7173e-07,0.56,0.64,0
0.033011,-0.002993,0.032148,0.00052419,0.0098017,0.0024182,0,0,0.058101,-0.024122,0,0.012575,0,0,0,0.032332,0.00034034,0.0098017,4.3476,0.014158,0.028466,7.5852e-07,0.6,0.64,0
0.035437,-0.0035568,0.036832,-0.001969,0.010459,0.002703,0,0,0.047845,-0.022222,0,0.010565,0,0,0,0.037029,-0.0021664,0.010459,4.1698,0.015107,0.034655,1.3705e-06,0.64,0.64,0
0.037095,-0.0037645,0.029593,-0.0030308,0.0079688,0.001911,0,0,0.038475,-0.019442,0,0.0078815,0,0,0,0.029728,-0.0031653,0.0079688,3.7523,0.01151,0.028978,7.8582e-07,0.68,0.64,0
0.038396,-0.0039131,0.035285,-0.0031124,0.0096517,0.0018824,0,0,0.033323,-0.016593,0,0.0048942,0,0,0,0.035377,-0.0032045,0.0096517,2.7999,0.013941,0.034026,1.0931e-06,0.72,0.64,0
0.039761,-0.0040956,0.036844,-0.0024677,0.010313,0.0011644,0,0,0.03449,-0.016615,0,0.0030275,0,0,0,0.036878,-0.0025021,0.010313,1.6951,0.014896,0.03479,1.2154e-06,0.76,0.64,0
0.041155,-0.0042732,0.037117,-0.0019014,0.010565,0.00061224,0,0,0.034518,-0.016206,0,0.0015918,0,0,0,0.037127,-0.001911,0.010565,0.89873,0.01526,0.034534,1.2224e-06,0.8,0.64,0
0.042522,-0.0044447,0.036087,-0.0013956,0.010408,9.1053e-05,0,0,0.033384,-0.015344,0,0.00023674,0,0,0,0.036087,-0.0013958,0.010408,0.13918,0.015033,0.033195,1.1094e-06,0.84,0.64,0
0.043826,-0.0046391,0.03057,-0.00023697,0.0090999,0.0001076,0,0,0.03814,-0.016394,0,-0.00038778,0,0,0,0.030583,-0.00024963,0.0090999,-0.12909,0.013144,0.027383,7.9331e-07,0.88,0.64,0
0.045462,-0.0047356,0.037615,0.0011438,0.011628,-0.00045795,0,0,0.04711,-0.018632,0,-0.0023188,0,0,0,0.037629,0.0011304,0.011628,-0.91132,0.016796,0.032548,1.322e-06,0.92,0.64,0
0.047842,-0.0044586,0.032638,0.0034338,0.010821,-0.00037099,0,0,0.056722,-0.019208,0,-0.0019292,0,0,0,0.032642,0.0034291,0.010821,-0.72771,0.015631,0.026308,6.9219e-07,0.96,0.64,0
0.05,-0.004283,0.031673,0.0047409,0.010924,0.00084407,0,0,0.053947,-0.016076,0,0.0043892,0,0,0,0.031699,0.0047144,0.010924,1.7934,0.015779,0.024478,5.93e-07,1,0.64,0
0,0,0.031729,0.013598,0.013598,-0.0036246,0,0,0.04714,-4.3368e-19,0,-0.018848,0,0,0,0.032427,0.0129,0.013598,-10.896,0.019642,0.019187,3.6116e-07,0,0.68,0
0.0018856,-0.00075391,0.031617,0.012179,0.013139,-0.0035214,0,0,0.048043,-0.0024949,0,-0.018311,0,0,0,0.032236,0.011561,0.013139,-9.9584,0.018978,0.019932,3.9814e-07,0.04,0.68,0
0.0038435,-0.0014245,0.032028,0.010771,0.01284,-0.0031255,0,0,0.04989,-0.0053794,0,-0.016252,0,0,0,0.032478,0.010321,0.01284,-8.1932,0.018546,0.021012,4.5343e-07,0.08,0.68,0
0.0058768,-0.0019924,0.032399,0.0092625,0.012498,-0.0025971,0,0,0.051742,-0.0084135,0,-0.013505,0,0,0,0.032687,0.0089746,0.012498,-6.3266,0.018053,0.022162,5.117e-07,0.12,0.68,0
0.0079828,-0.0024422,0.032698,0.0077269,0.012127,-0.0019605,0,0,0.053483,-0.011441,0,-0.010195,0,0,0,0.032851,0.007574,0.012127,-4.462,0.017517,0.023335,5.6978e-07,0.16,0.68,0
0.010155,-0.002765,0.032923,0.0062024,0.011737,-0.0012605,0,0,0.055081,-0.014391,0,-0.0065544,0,0,0,0.032982,0.0061431,0.011737,-2.6948,0.016954,0.024525,6.2675e-07,0.2,0.68,0
0.012389,-0.0029632,0.033084,0.0046878,0.011331,-0.00055671,0,0,0.056556,-0.017274,0,-0.0028949,0,0,0,0.033095,0.0046768,0.011331,-1.1227,0.016368,0.025744,6.8286e-07,0.24,0.68,0
0.01468,-0.0030531,0.033201,0.0032029,0.010921,6.8757e-05,0,0,0.057927,-0.020067,0,0.00035754,0,0,0,0.033201,0.0032028,0.010921,0.13132,0.015775,0.02698,7.3733e-07,0.28,0.68,0
0.017024,-0.0030667,0.033279,0.0018305,0.010533,0.00055844,0,0,0.059141,-0.022626,0,0.0029039,0,0,0,0.033289,0.0018206,0.010533,1.017,0.015214,0.028143,7.8579e-07,0.32,0.68,0
0.019411,-0.0030446,0.033337,0.00074668,0.010225,0.00089849,0,0,0.060091,-0.024644,0,0.0046722,0,0,0,0.033362,0.00072192,0.010225,1.578,0.01477,0.029077,8.2296e-07,0.36,0.68,0
0.021831,-0.0030248,0.03339,7.9989e-05,0.010041,0.0011566,0,0,0.060707,-0.025899,0,0.0060141,0,0,0,0.03343,3.988e-05,0.010041,1.9862,0.014504,0.029681,8.4703e-07,0.4,0.68,0
0.024268,-0.0030339,0.033456,-0.00015888,0.0099892,0.0013905,0,0,0.061014,-0.026385,0,0.0072306,0,0,0,0.033514,-0.0002163,0.0099892,2.3647,0.014429,0.02996,8.6037e-07,0.44,0.68,0
0.026712,-0.0030903,0.033599,2.4119e-05,0.010087,0.0016314,0,0,0.061131,-0.026163,0,0.0084833,0,0,0,0.033678,-5.4966e-05,0.010087,2.7753,0.01457,0.029977,8.6863e-07,0.48,0.68,0
0.029158,-0.0032138,0.033978,0.00062955,0.010382,0.0018457,0,0,0.061349,-0.025357,0,0.0095974,0,0,0,0.03408,0.00052771,0.010382,3.1582,0.014997,0.02987,8.8339e-07,0.52,0.68,0
0.03162,-0.0034407,0.03486,0.001593,0.010936,0.0016133,0,0,0.062203,-0.024292,0,0.0083894,0,0,0,0.034938,0.0015149,0.010936,2.77,0.015796,0.029849,9.2126e-07,0.56,0.68,0
0.034134,-0.0039887,0.040101,-0.00020575,0.011968,0.0024311,0,0,0.050777,-0.021643,0,0.0092775,0,0,0,0.040251,-0.0003563,0.011968,3.5831,0.017288,0.036062,1.7098e-06,0.6,0.68,0
0.035924,-0.004364,0.032005,-0.0016039,0.0091203,0.00072961,0,0,0.040933,-0.018987,0,0.0025951,0,0,0,0.032021,-0.0016197,0.0091203,1.2407,0.013174,0.029762,9.2582e-07,0.64,0.68,0
0.037257,-0.0044519,0.036159,-0.0030067,0.0099456,0.00089419,0,0,0.034077,-0.016838,0,0.0023249,0,0,0,0.036179,-0.0030271,0.0099456,1.3072,0.014366,0.034595,1.1628e-06,0.68,0.68,0
0.03865,-0.0045667,0.037031,-0.0021944,0.010451,0.00082418,0,0,0.034554,-0.016439,0,0.0021429,0,0,0,0.037048,-0.0022117,0.010451,1.2032,0.015096,0.034707,1.2236e-06,0.72,0.68,0
0.040021,-0.0047349,0.036958,-0.0016464,0.010593,0.0006083,0,0,0.034274,-0.015912,0,0.0015816,0,0,0,0.036967,-0.001656,0.010593,0.90253,0.015302,0.034186,1.1994e-06,0.76,0.68,0
0.041392,-0.0048995,0.037311,-0.0011971,0.010834,0.0005645,0,0,0.03442,-0.015641,0,0.0014677,0,0,0,0.037319,-0.0012053,0.010834,0.83968,0.015649,0.034136,1.2194e-06,0.8,0.68,0
0.042775,-0.0050555,0.03807,-0.0007638,0.011192,0.0005538,0,0,0.034941,-0.015542,0,0.0014399,0,0,0,0.038078,-0.0007717,0.011192,0.81686,0.016166,0.034462,1.28e-06,0.84,0.68,0
0.044187,-0.0052444,0.038008,-0.00038004,0.011288,0.00092,0,0,0.034736,-0.015169,0,0.002392,0,0,0,0.03803,-0.00040208,0.011288,1.3721,0.016306,0.034124,1.2627e-06,0.88,0.68,0
0.045554,-0.0054257,0.034252,0.0013654,0.010685,0.001244,0,0,0.042185,-0.016428,0,0.0047154,0,0,0,0.0343,0.0013169,0.010685,2.2663,0.015434,0.02944,1.0341e-06,0.92,0.68,0
0.047401,-0.0052803,0.042728,0.0028437,0.013671,-0.0004183,0,0,0.052449,-0.019022,0,-0.0017722,0,0,0,0.042733,0.0028382,0.013671,-0.67867,0.019748,0.035737,1.8781e-06,0.96,0.68,0
0.05,-0.0049879,0.038055,0.0055111,0.01307,0.0014058,0,0,0.064962,-0.019653,0,0.00731,0,0,0,0.038116,0.0054505,0.01307,2.4688,0.018879,0.0296,1.0404e-06,1,0.68,0
0,0,0.031499,0.013499,0.013499,-0.0041352,0,0,0.046798,4.3368e-19,0,-0.021503,0,0,0,0.032403,0.012595,0.013499,-12.339,0.019499,0.019372,3.7063e-07,0,0.72,0
0.0018719,-0.00086013,0.03137,0.011856,0.012968,-0.0040094,0,0,0.047846,-0.0028902,0,-0.020849,0,0,0,0.032162,0.011065,0.012968,-11.17,0.018732,0.020213,4.1148e-07,0.04,0.72,0
0.0038277,-0.0016524,0.031863,0.010274,0.012641,-0.0035871,0,0,0.049978,-0.0061545,0,-0.018653,0,0,0,0.032444,0.0096937,0.012641,-9.1908,0.01826,0.021429,4.7331e-07,0.08,0.72,0
0.0058701,-0.0023477,0.032318,0.0086195,0.012281,-0.0029833,0,0,0.052095,-0.0095204,0,-0.015513,0,0,0,0.032688,0.0082497,0.012281,-7.0659,0.017739,0.022692,5.3686e-07,0.12,0.72,0
0.0079953,-0.0029235,0.032704,0.0069929,0.011909,-0.0022531,0,0,0.054067,-0.012782,0,-0.011716,0,0,0,0.0329,0.0067969,0.011909,-4.9703,0.017202,0.02396,5.9945e-07,0.16,0.72,0
0.010195,-0.0033679,0.033017,0.0054424,0.011538,-0.0014711,0,0,0.055846,-0.015848,0,-0.0076495,0,0,0,0.033095,0.0053641,0.011538,-3.0451,0.016666,0.025218,6.6018e-07,0.2,0.72,0
0.012463,-0.0036823,0.033272,0.0039826,0.011176,-0.00071956,0,0,0.057448,-0.018703,0,-0.0037417,0,0,0,0.033289,0.003965,0.011176,-1.4065,0.016144,0.026466,7.1915e-07,0.24,0.72,0
0.014791,-0.0038821,0.03349,0.0026281,0.010835,-7.0071e-05,0,0,0.058902,-0.021339,0,-0.00036437,0,0,0,0.03349,0.002628,0.010835,-0.13009,0.015651,0.027687,7.7575e-07,0.28,0.72,0
0.017175,-0.0039942,0.033695,0.0014331,0.010539,0.00043105,0,0,0.060208,-0.023674,0,0.0022415,0,0,0,0.033701,0.0014273,0.010539,0.76534,0.015222,0.02882,8.2786e-07,0.32,0.72,0
0.019608,-0.0040512,0.033906,0.00048733,0.010318,0.00078454,0,0,0.061329,-0.02556,0,0.0040796,0,0,0,0.033924,0.00046892,0.010318,1.3441,0.014904,0.029779,8.7299e-07,0.36,0.72,0
0.022081,-0.004084,0.034141,-0.00012496,0.010205,0.0010286,0,0,0.062234,-0.026857,0,0.0053488,0,0,0,0.034172,-0.00015581,0.010205,1.7179,0.01474,0.030497,9.1024e-07,0.4,0.72,0
0.024587,-0.0041171,0.034425,-0.00035381,0.010221,0.0012142,0,0,0.06293,-0.027495,0,0.0063138,0,0,0,0.034467,-0.00039615,0.010221,1.997,0.014764,0.030952,9.4088e-07,0.44,0.72,0
0.027116,-0.0041698,0.034805,-0.00015835,0.010394,0.0013533,0,0,0.063469,-0.027436,0,0.0070371,0,0,0,0.034857,-0.00021066,0.010394,2.2133,0.015014,0.03115,9.6767e-07,0.48,0.72,0
0.029664,-0.0042653,0.035391,0.00054376,0.01078,0.0013448,0,0,0.063987,-0.026615,0,0.006993,0,0,0,0.035442,0.00049194,0.01078,2.2068,0.015572,0.031109,9.9544e-07,0.52,0.72,0
0.032235,-0.0044562,0.035861,0.00171,0.011271,0.0010009,0,0,0.063933,-0.024859,0,0.0052047,0,0,0,0.03589,0.0016807,0.011271,1.6773,0.016281,0.030564,9.9441e-07,0.56,0.72,0
0.034779,-0.0047895,0.035331,-0.0006681,0.010399,0.0012616,0,0,0.048312,-0.019183,0,0.0039784,0,0,0,0.035384,-0.00072162,0.010399,1.8953,0.015021,0.032116,9.819e-07,0.6,0.72,0
0.0361,-0.0050279,0.036196,-0.0022289,0.01019,0.00059012,0,0,0.033808,-0.016145,0,0.0015343,0,0,0,0.036206,-0.002238,0.01019,0.87965,0.014719,0.033979,1.1441e-06,0.64,0.72,0
0.037484,-0.0051116,0.036873,-0.0021172,0.010427,0.0010965,0,0,0.03438,-0.016307,0,0.0028508,0,0,0,0.036904,-0.002148,0.010427,1.6096,0.015061,0.034527,1.2078e-06,0.68,0.72,0
0.03885,-0.0052282,0.036704,-0.0020652,0.010392,0.00056419,0,0,0.034206,-0.016194,0,0.0014669,0,0,0,0.036712,-0.0020735,0.010392,0.83357,0.01501,0.034297,1.1873e-06,0.72,0.72,0
0.04022,-0.0053685,0.037058,-0.001442,0.010685,0.00027424,0,0,0.034285,-0.015765,0,0.00071301,0,0,0,0.03706,-0.001444,0.010685,0.40809,0.015433,0.034098,1.2018e-06,0.76,0.72,0
0.041593,-0.0055244,0.037478,-0.0010798,0.01092,0.00012168,0,0,0.034527,-0.015599,0,0.00031637,0,0,0,0.037479,-0.0010801,0.01092,0.18081,0.015773,0.034177,1.231e-06,0.8,0.72,0
0.042982,-0.005688,0.03799,-0.00091482,0.011123,4.0774e-05,0,0,0.034928,-0.015648,0,0.00010601,0,0,0,0.03799,-0.00091486,0.011123,0.060049,0.016066,0.034499,1.276e-06,0.84,0.72,0
0.044387,-0.0058526,0.039037,-0.00010024,0.011681,-7.8289e-05,0,0,0.035563,-0.015316,0,-0.00020355,0,0,0,0.039037,-0.0001004,0.011681,-0.11461,0.016873,0.034777,1.3542e-06,0.88,0.72,0
0.045827,-0.006017,0.039276,0.00072173,0.011999,0.00086044,0,0,0.03546,-0.014661,0,0.0022371,0,0,0,0.039295,0.00070254,0.011999,1.2778,0.017332,0.034366,1.3506e-06,0.92,0.72,0
0.047224,-0.0060107,0.039385,0.0026406,0.012608,0.00013215,0,0,0.052161,-0.017276,0,0.00108,0,0,0,0.039391,0.0026346,0.012608,0.27102,0.018211,0.033005,1.2429e-06,0.96,0.72,0
0.05,-0.0058553,0.040636,0.0058405,0.013943,0.00074758,0,0,0.069402,-0.021066,0,0.0038874,0,0,0,0.040652,0.0058245,0.013943,1.2302,0.02014,0.031561,1.2617e-06,1,0.72,0
0,0,0.031468,0.013486,0.013486,-0.0047362,0,0,0.046752,4.3368e-19,0,-0.024628,0,0,0,0.032639,0.012315,0.013486,-13.89,0.01948,0.019764,3.9183e-07,0,0.76,0
0.0018701,-0.00098513,0.031308,0.011532,0.012852,-0.0045867,0,0,0.047986,-0.0034319,0,-0.023851,0,0,0,0.03232,0.01052,0.012852,-12.443,0.018564,0.020733,4.3824e-07,0.04,0.76,0
0.0038388,-0.0019169,0.031883,0.0096997,0.012475,-0.0041294,0,0,0.050461,-0.007215,0,-0.021473,0,0,0,0.032626,0.008956,0.012475,-10.21,0.018019,0.022122,5.0892e-07,0.08,0.76,0
0.0059069,-0.002754,0.032398,0.0078581,0.012077,-0.003434,0,0,0.052836,-0.010969,0,-0.017857,0,0,0,0.03287,0.0073867,0.012077,-7.8176,0.017444,0.023492,5.7739e-07,0.12,0.76,0
0.0080657,-0.0034647,0.03282,0.0061441,0.011689,-0.0025943,0,0,0.054941,-0.014418,0,-0.01349,0,0,0,0.03307,0.0058941,0.011689,-5.5033,0.016885,0.024792,6.4079e-07,0.16,0.76,0
0.010302,-0.0040328,0.033147,0.0046094,0.011327,-0.001725,0,0,0.056731,-0.017465,0,-0.0089698,0,0,0,0.03325,0.0045055,0.011327,-3.4466,0.016361,0.026014,6.989e-07,0.2,0.76,0
0.012604,-0.0044594,0.033402,0.0032497,0.010996,-0.00092644,0,0,0.058257,-0.020139,0,-0.0048175,0,0,0,0.03343,0.0032212,0.010996,-1.7582,0.015882,0.027169,7.5282e-07,0.24,0.76,0
0.014963,-0.0047603,0.033626,0.0020539,0.010704,-0.00026768,0,0,0.059597,-0.02249,0,-0.0013919,0,0,0,0.033628,0.0020516,0.010704,-0.48573,0.015461,0.028262,8.0356e-07,0.28,0.76,0
0.017372,-0.0049606,0.033855,0.0010358,0.010467,0.0002213,0,0,0.060808,-0.024522,0,0.0011507,0,0,0,0.033856,0.0010343,0.010467,0.38632,0.015119,0.029269,8.5125e-07,0.32,0.76,0
0.019827,-0.0050894,0.034117,0.00023766,0.010306,0.00054765,0,0,0.061907,-0.026179,0,0.0028478,0,0,0,0.034126,0.00022881,0.010306,0.92586,0.014887,0.030149,8.9565e-07,0.36,0.76,0
0.022325,-0.0051734,0.034432,-0.00028704,0.010244,0.00074814,0,0,0.062891,-0.02738,0,0.0038903,0,0,0,0.034448,-0.00030315,0.010244,1.2338,0.014796,0.030861,9.3671e-07,0.4,0.76,0
0.024859,-0.0052336,0.03481,-0.00048502,0.010297,0.00086847,0,0,0.063732,-0.028034,0,0.0045161,0,0,0,0.034831,-0.00050638,0.010297,1.4087,0.014874,0.031364,9.7402e-07,0.44,0.76,0
0.027423,-0.0052852,0.035215,-0.00029161,0.010477,0.0009332,0,0,0.064318,-0.027998,0,0.0048527,0,0,0,0.035239,-0.00031612,0.010477,1.5045,0.015133,0.031574,1.0029e-06,0.48,0.76,0
0.030004,-0.005343,0.035458,0.00040654,0.010759,0.0009058,0,0,0.064216,-0.026917,0,0.0047101,0,0,0,0.035481,0.00038315,0.010759,1.4793,0.015541,0.031231,1.0021e-06,0.52,0.76,0
0.03256,-0.0054295,0.03536,0.0020519,0.011224,0.0007704,0,0,0.062754,-0.023846,0,0.0040061,0,0,0,0.035378,0.0020341,0.011224,1.3243,0.016212,0.02983,9.3981e-07,0.56,0.76,0
0.035024,-0.0055233,0.035369,-4.1085e-05,0.010598,0.00063521,0,0,0.047602,-0.018442,0,0.0023622,0,0,0,0.035381,-5.2476e-05,0.010598,1.0262,0.015309,0.03156,9.7605e-07,0.6,0.76,0
0.036368,-0.0056556,0.035676,-0.0020453,0.010089,0.00095312,0,0,0.033263,-0.015775,0,0.0024781,0,0,0,0.0357,-0.0020693,0.010089,1.4465,0.014573,0.033394,1.0932e-06,0.64,0.76,0
0.037685,-0.0057565,0.035649,-0.0019363,0.010114,0.00069551,0,0,0.033196,-0.015665,0,0.0018083,0,0,0,0.035662,-0.0019492,0.010114,1.0598,0.014609,0.033263,1.0865e-06,0.68,0.76,0
0.039024,-0.0058622,0.036253,-0.0016021,0.010395,0.0003156,0,0,0.033615,-0.015596,0,0.00082056,0,0,0,0.036255,-0.0016047,0.010395,0.47764,0.015015,0.033512,1.1308e-06,0.72,0.76,0
0.040375,-0.0059961,0.036719,-0.0012569,0.010639,-9.339e-05,0,0,0.033905,-0.015464,0,-0.00024281,0,0,0,0.03672,-0.0012571,0.010639,-0.1409,0.015367,0.033645,1.1637e-06,0.76,0.76,0
0.041737,-0.0061475,0.037174,-0.00098435,0.010857,-0.00037327,0,0,0.034212,-0.015393,0,-0.0009705,0,0,0,0.037177,-0.000988,0.010857,-0.56041,0.015682,0.033835,1.1988e-06,0.8,0.76,0
0.043112,-0.0063074,0.037636,-0.000745,0.011067,-0.00059248,0,0,0.034539,-0.015356,0,-0.0015404,0,0,0,0.037645,-0.00075415,0.011067,-0.88418,0.015986,0.034063,1.2366e-06,0.84,0.76,0
0.0445,-0.0064696,0.038015,-0.00037962,0.011291,-0.00061873,0,0,0.034742,-0.015171,0,-0.0016087,0,0,0,0.038025,-0.00038959,0.011291,-0.92299,0.016309,0.034109,1.2617e-06,0.88,0.76,0
0.045891,-0.0065986,0.038993,0.0003932,0.011816,-0.00045539,0,0,0.035331,-0.01485,0,-0.001184,0,0,0,0.038999,0.00038783,0.011816,-0.67583,0.017067,0.034353,1.332e-06,0.92,0.76,0
0.047326,-0.0066624,0.039547,0.0034242,0.012891,0.00011596,0,0,0.051363,-0.01641,0,0.00062306,0,0,0,0.039548,0.0034233,0.012891,0.21029,0.018621,0.032506,1.2407e-06,0.96,0.76,0
0.05,-0.0066732,0.03936,0.0061412,0.01365,-5.1931e-05,0,0,0.066845,-0.019524,0,-0.00027004,0,0,0,0.03936,0.0061411,0.01365,-0.08957,0.019717,0.030173,1.1218e-06,1,0.76,0
0,0,0.031646,0.013563,0.013563,-0.0054552,0,0,0.047017,-1.9516e-18,0,-0.028367,0,0,0,0.033164,0.012044,0.013563,-15.552,0.019591,0.020403,4.281e-07,0,0.8,0
0.0018807,-0.0011347,0.031437,0.011194,0.01279,-0.0052677,0,0,0.048484,-0.0041471,0,-0.027392,0,0,0,0.032726,0.0099058,0.01279,-13.748,0.018474,0.021524,4.8128e-07,0.04,0.8,0
0.0038787,-0.0022296,0.032079,0.0090058,0.012325,-0.0047396,0,0,0.05136,-0.0086313,0,-0.024646,0,0,0,0.033015,0.0080701,0.012325,-11.167,0.017803,0.023113,5.6236e-07,0.08,0.8,0
0.0059895,-0.0032252,0.032615,0.0069341,0.011865,-0.0038963,0,0,0.053951,-0.01282,0,-0.020261,0,0,0,0.033194,0.006356,0.011865,-8.4399,0.017138,0.024551,6.3295e-07,0.12,0.8,0
0.0081949,-0.004077,0.033003,0.0051625,0.01145,-0.0029016,0,0,0.056039,-0.016347,0,-0.015088,0,0,0,0.033303,0.0048633,0.01145,-5.8871,0.016539,0.025785,6.9059e-07,0.16,0.8,0
0.010473,-0.0047651,0.033251,0.0037059,0.011087,-0.0019239,0,0,0.057627,-0.019191,0,-0.010004,0,0,0,0.033376,0.0035811,0.011087,-3.7101,0.016015,0.026841,7.3752e-07,0.2,0.8,0
0.012805,-0.0052934,0.033413,0.002505,0.010775,-0.0010817,0,0,0.058857,-0.021503,0,-0.005625,0,0,0,0.033451,0.0024672,0.010775,-2.002,0.015564,0.027777,7.7786e-07,0.24,0.8,0
0.015181,-0.0056813,0.033551,0.0015015,0.010516,-0.00043112,0,0,0.059892,-0.023437,0,-0.0022418,0,0,0,0.033557,0.0014957,0.010516,-0.77055,0.015189,0.028637,8.1505e-07,0.28,0.8,0
0.017596,-0.0059559,0.033718,0.00067413,0.010318,1.7255e-05,0,0,0.060841,-0.025073,0,8.9726e-05,0,0,0,0.033718,0.00067413,0.010318,0.029919,0.014903,0.029432,8.5122e-07,0.32,0.8,0
0.020049,-0.0061455,0.033946,3.4002e-05,0.010194,0.00028451,0,0,0.061756,-0.026416,0,0.0014795,0,0,0,0.033949,3.1615e-05,0.010194,0.48065,0.014725,0.030149,8.8733e-07,0.36,0.8,0
0.022537,-0.0062744,0.034253,-0.0003852,0.01016,0.00041263,0,0,0.062641,-0.027418,0,0.0021457,0,0,0,0.034258,-0.00039011,0.01016,0.68241,0.014676,0.030761,9.2373e-07,0.4,0.8,0
0.02506,-0.0063598,0.034639,-0.00053215,0.010232,0.00045596,0,0,0.063459,-0.027987,0,0.002371,0,0,0,0.034645,-0.00053806,0.010232,0.74261,0.01478,0.031224,9.5949e-07,0.44,0.8,0
0.027613,-0.0064096,0.035062,-0.00032819,0.01042,0.00048256,0,0,0.064069,-0.027946,0,0.0025093,0,0,0,0.035069,-0.00033477,0.01042,0.78106,0.015051,0.031437,9.8898e-07,0.48,0.8,0
0.030185,-0.0064187,0.035335,0.00036409,0.01071,0.0005952,0,0,0.064025,-0.026898,0,0.003095,0,0,0,0.035345,0.00035396,0.01071,0.97479,0.01547,0.031133,9.9151e-07,0.52,0.8,0
0.032736,-0.0063639,0.035245,0.0019736,0.011166,0.00083983,0,0,0.062607,-0.0239,0,0.0043671,0,0,0,0.035267,0.0019524,0.011166,1.445,0.016128,0.029796,9.3351e-07,0.56,0.8,0
0.035194,-0.0062648,0.0352,-0.0001247,0.010523,0.0010621,0,0,0.047445,-0.018455,0,0.0041995,0,0,0,0.035233,-0.00015756,0.010523,1.7593,0.015199,0.031513,9.6588e-07,0.6,0.8,0
0.036531,-0.0062899,0.035487,-0.0018397,0.010094,0.00057959,0,0,0.033011,-0.015514,0,0.0015069,0,0,0,0.035496,-0.0018487,0.010094,0.88937,0.01458,0.033034,1.0689e-06,0.64,0.8,0
0.037835,-0.0063648,0.035377,-0.0015644,0.010144,0.00029337,0,0,0.032803,-0.015221,0,0.00076276,0,0,0,0.035379,-0.0015668,0.010144,0.45498,0.014652,0.032703,1.0508e-06,0.68,0.8,0
0.039155,-0.006476,0.035904,-0.0011931,0.010413,-7.7221e-05,0,0,0.033138,-0.015088,0,-0.00020077,0,0,0,0.035904,-0.0011932,0.010413,-0.11926,0.015041,0.032869,1.0869e-06,0.72,0.8,0
0.040486,-0.0066057,0.036321,-0.0008671,0.010636,-0.00045417,0,0,0.03339,-0.014954,0,-0.0011808,0,0,0,0.036326,-0.00087265,0.010636,-0.6996,0.015363,0.032987,1.1156e-06,0.76,0.8,0
0.041827,-0.0067559,0.036731,-0.00067966,0.010815,-0.00084708,0,0,0.03369,-0.014944,0,-0.0022024,0,0,0,0.03675,-0.00069883,0.010815,-1.2965,0.015622,0.033223,1.1493e-06,0.8,0.8,0
0.043181,-0.0069165,0.037151,-0.00058925,0.010969,-0.001075,0,0,0.034038,-0.015025,0,-0.002795,0,0,0,0.037182,-0.00061985,0.010969,-1.6302,0.015844,0.033544,1.1874e-06,0.84,0.8,0
0.04455,-0.0070663,0.037525,-0.00039696,0.011139,-0.0011587,0,0,0.034303,-0.014996,0,-0.0030125,0,0,0,0.037561,-0.00043233,0.011139,-1.7484,0.016089,0.03373,1.2176e-06,0.88,0.8,0
0.045925,-0.0072049,0.038501,0.00012976,0.011589,-0.0010225,0,0,0.034985,-0.014897,0,-0.0026584,0,0,0,0.038528,0.00010253,0.011589,-1.5253,0.01674,0.034163,1.2946e-06,0.92,0.8,0
0.047348,-0.0073235,0.039035,0.0029721,0.012602,-0.00089759,0,0,0.050935,-0.016692,0,-0.0030078,0,0,0,0.039059,0.0029476,0.012602,-1.3736,0.018203,0.032447,1.2112e-06,0.96,0.8,0
0.05,-0.0074171,0.038887,0.0057501,0.013391,-0.00045016,0,0,0.06629,-0.019867,0,-0.0023408,0,0,0,0.038893,0.005744,0.013391,-0.77816,0.019343,0.030064,1.0971e-06,1,0.8,0
0,0,0.032111,0.013762,0.013762,-0.0063312,0,0,0.047707,1.0842e-18,0,-0.032922,0,0,0,0.034083,0.011789,0.013762,-17.305,0.019878,0.021376,4.8728e-07,0,0.84,0
0.0019083,-0.0013169,0.031809,0.010796,0.012781,-0.0060666,0,0,0.049471,-0.0051623,0,-0.031546,0,0,0,0.033435,0.0091702,0.012781,-15.001,0.018462,0.022675,5.4797e-07,0.04,0.84,0
0.0039577,-0.0026074,0.032482,0.008082,0.012169,-0.0053751,0,0,0.052814,-0.010627,0,-0.02795,0,0,0,0.033614,0.0069504,0.012169,-11.888,0.017578,0.024475,6.3911e-07,0.08,0.84,0
0.0061334,-0.0037796,0.03297,0.0057634,0.01162,-0.0042745,0,0,0.05551,-0.015227,0,-0.022227,0,0,0,0.033626,0.0051076,0.01162,-8.722,0.016784,0.025884,7.0417e-07,0.12,0.84,0
0.0083985,-0.0047725,0.033214,0.0040238,0.011171,-0.0030541,0,0,0.057311,-0.018584,0,-0.015881,0,0,0,0.03353,0.0037076,0.011171,-5.9094,0.016136,0.026879,7.4421e-07,0.16,0.84,0
0.010718,-0.0055681,0.033268,0.0027539,0.010806,-0.0019612,0,0,0.058399,-0.020937,0,-0.010198,0,0,0,0.033393,0.0026283,0.010806,-3.6625,0.015609,0.0276,7.6876e-07,0.2,0.84,0
0.01307,-0.0061797,0.033232,0.0017778,0.010503,-0.0011004,0,0,0.059096,-0.022686,0,-0.005722,0,0,0,0.033271,0.0017393,0.010503,-2.0011,0.015171,0.02819,7.8684e-07,0.24,0.84,0
0.015446,-0.0066352,0.03321,0.001001,0.010263,-0.0004917,0,0,0.059662,-0.024082,0,-0.0025568,0,0,0,0.033218,0.00099346,0.010263,-0.8744,0.014825,0.028733,8.0459e-07,0.28,0.84,0
0.017843,-0.0069665,0.033254,0.00037806,0.01009,-0.00011484,0,0,0.060228,-0.02525,0,-0.00059718,0,0,0,0.033255,0.00037766,0.01009,-0.20014,0.014574,0.029256,8.2456e-07,0.32,0.84,0
0.020264,-0.0072027,0.033387,-9.7381e-05,0.0099868,6.8312e-05,0,0,0.06084,-0.026219,0,0.00035522,0,0,0,0.033387,-9.752e-05,0.0099868,0.11689,0.014425,0.029753,8.4747e-07,0.36,0.84,0
0.022711,-0.0073668,0.033614,-0.0004036,0.0099631,0.00010735,0,0,0.061492,-0.026953,0,0.00055824,0,0,0,0.033614,-0.00040394,0.0099631,0.18081,0.014391,0.0302,8.732e-07,0.4,0.84,0
0.025184,-0.0074725,0.033939,-0.00049264,0.010034,6.3003e-05,0,0,0.062152,-0.027369,0,0.00032762,0,0,0,0.033939,-0.00049275,0.010034,0.10484,0.014493,0.030559,9.0103e-07,0.44,0.84,0
0.027683,-0.0075208,0.034374,-0.00028104,0.010228,1.6695e-05,0,0,0.06278,-0.027323,0,8.6816e-05,0,0,0,0.034374,-0.00028104,0.010228,0.027603,0.014774,0.030777,9.3004e-07,0.48,0.84,0
0.030206,-0.0074949,0.035008,0.00038255,0.010617,0.0001253,0,0,0.063415,-0.02661,0,0.00065155,0,0,0,0.035008,0.0003821,0.010617,0.20733,0.015336,0.030811,9.6246e-07,0.52,0.84,0
0.032756,-0.0073415,0.035545,0.0015215,0.01112,0.00060139,0,0,0.063506,-0.024956,0,0.0031272,0,0,0,0.035556,0.0015109,0.01112,1.0123,0.016062,0.030402,9.7204e-07,0.56,0.84,0
0.035286,-0.0069997,0.034825,-0.0010462,0.010134,0.00049426,0,0,0.047914,-0.019378,0,0.002708,0,0,0,0.034844,-0.0010651,0.010134,0.90895,0.014637,0.031914,9.4412e-07,0.6,0.84,0
0.036589,-0.0068967,0.035671,-0.001578,0.010228,0.0010754,0,0,0.033076,-0.015348,0,0.0027961,0,0,0,0.035702,-0.001609,0.010228,1.6524,0.014774,0.033024,1.0807e-06,0.64,0.84,0
0.037933,-0.0069742,0.036084,-0.0010621,0.010506,5.4009e-05,0,0,0.03325,-0.015039,0,0.00014043,0,0,0,0.036084,-0.0010622,0.010506,0.083307,0.015176,0.032923,1.0992e-06,0.68,0.84,0
0.039249,-0.0070693,0.035754,-0.00079391,0.010488,-0.0001972,0,0,0.032845,-0.014666,0,-0.00051271,0,0,0,0.035755,-0.00079497,0.010488,-0.30914,0.015149,0.032416,1.0618e-06,0.72,0.84,0
0.04056,-0.0071925,0.035903,-0.00027136,0.010689,-0.00070628,0,0,0.032777,-0.014249,0,-0.0018363,0,0,0,0.035917,-0.00028515,0.010689,-1.1181,0.01544,0.032151,1.0607e-06,0.76,0.84,0
0.041871,-0.0073429,0.036168,-0.00016703,0.0108,-0.0012492,0,0,0.032978,-0.014258,0,-0.0032479,0,0,0,0.036211,-0.00020993,0.0108,-1.9667,0.0156,0.032353,1.0845e-06,0.8,0.84,0
0.043198,-0.0075094,0.036592,-0.00038602,0.010862,-0.0016381,0,0,0.033449,-0.014622,0,-0.004259,0,0,0,0.036664,-0.00045844,0.010862,-2.5316,0.015689,0.032955,1.1337e-06,0.84,0.84,0
0.044547,-0.0076693,0.037503,-0.000222,0.011184,-0.001681,0,0,0.034214,-0.014828,0,-0.0043706,0,0,0,0.037577,-0.00029676,0.011184,-2.5463,0.016155,0.033637,1.2147e-06,0.88,0.84,0
0.045935,-0.0077904,0.037787,9.6653e-06,0.011339,-0.0023004,0,0,0.034382,-0.014728,0,-0.005981,0,0,0,0.037926,-0.0001299,0.011339,-3.4718,0.016379,0.033814,1.243e-06,0.92,0.84,0
0.047298,-0.0079978,0.037834,0.0013114,0.011744,-0.00095868,0,0,0.050806,-0.018083,0,-0.0035624,0,0,0,0.037859,0.0012862,0.011744,-1.4961,0.016963,0.032714,1.1426e-06,0.96,0.84,0
0.05,-0.0082626,0.039106,0.0046368,0.013123,-0.001273,0,0,0.067556,-0.022063,0,-0.0066195,0,0,0,0.039153,0.0045899,0.013123,-2.1122,0.018955,0.031185,1.1733e-06,1,0.84,0
0,0,0.033053,0.014166,0.014166,-0.0074407,0,0,0.049108,4.3368e-19,0,-0.038692,0,0,0,0.035633,0.011587,0.014166,-19.117,0.020462,0.022866,5.8775e-07,0,0.88,0
0.0019643,-0.0015477,0.032569,0.010202,0.012831,-0.006968,0,0,0.051318,-0.0068366,0,-0.036234,0,0,0,0.034562,0.0082086,0.012831,-15.963,0.018534,0.024373,6.5438e-07,0.04,0.88,0
0.0041054,-0.0030798,0.033168,0.0066862,0.011956,-0.0059275,0,0,0.055151,-0.013702,0,-0.030823,0,0,0,0.034434,0.00542,0.011956,-12.058,0.01727,0.026361,7.4943e-07,0.08,0.88,0
0.0063764,-0.0044434,0.033459,0.0042332,0.011307,-0.0043576,0,0,0.057592,-0.018393,0,-0.02266,0,0,0,0.034094,0.0035973,0.011307,-8.3026,0.016333,0.027466,7.8822e-07,0.12,0.88,0
0.0087128,-0.0055636,0.033391,0.0027933,0.010855,-0.0028858,0,0,0.058594,-0.020962,0,-0.015006,0,0,0,0.033661,0.0025235,0.010855,-5.341,0.01568,0.02792,7.9138e-07,0.16,0.88,0
0.011064,-0.00644,0.03307,0.0018193,0.010467,-0.0017365,0,0,0.058769,-0.022484,0,-0.0090298,0,0,0,0.033166,0.0017231,0.010467,-3.1707,0.015119,0.028111,7.7979e-07,0.2,0.88,0
0.013414,-0.0071082,0.032758,0.0011212,0.010164,-0.0009309,0,0,0.058745,-0.023511,0,-0.0048407,0,0,0,0.032785,0.0010939,0.010164,-1.684,0.014681,0.02827,7.7045e-07,0.24,0.88,0
0.015763,-0.0076079,0.032544,0.00058755,0.0099393,-0.00041752,0,0,0.058771,-0.024315,0,-0.0021711,0,0,0,0.032549,0.0005821,0.0099393,-0.74843,0.014357,0.028466,7.6754e-07,0.28,0.88,0
0.018116,-0.007976,0.032447,0.00016921,0.0097849,-0.00014307,0,0,0.058922,-0.025001,0,-0.00074399,0,0,0,0.032448,0.00016858,0.0097849,-0.25396,0.014134,0.028706,7.7119e-07,0.32,0.88,0
0.020477,-0.008243,0.032459,-0.00014667,0.0096938,-5.5785e-05,0,0,0.059191,-0.025585,0,-0.00029008,0,0,0,0.03246,-0.00014677,0.0096938,-0.098026,0.014002,0.028968,7.8013e-07,0.36,0.88,0
0.022851,-0.0084307,0.032563,-0.00034638,0.0096649,-0.00010249,0,0,0.059534,-0.026029,0,-0.00053297,0,0,0,0.032563,-0.0003467,0.0096649,-0.17844,0.013961,0.02922,7.9269e-07,0.4,0.88,0
0.02524,-0.0085493,0.032741,-0.00039108,0.009705,-0.0002247,0,0,0.059894,-0.02625,0,-0.0011685,0,0,0,0.032743,-0.00039261,0.009705,-0.38856,0.014018,0.029416,8.0701e-07,0.44,0.88,0
0.027643,-0.0085955,0.032999,-0.00021477,0.0098352,-0.00035258,0,0,0.060225,-0.02613,0,-0.0018334,0,0,0,0.033003,-0.00021851,0.0098352,-0.60813,0.014206,0.029508,8.2176e-07,0.48,0.88,0
0.030058,-0.0085474,0.03341,0.00026955,0.010104,-0.00040477,0,0,0.060596,-0.025569,0,-0.0021048,0,0,0,0.033415,0.00026461,0.010104,-0.69965,0.014595,0.029489,8.3974e-07,0.52,0.88,0
0.03249,-0.0083604,0.034201,0.0011517,0.010606,3.5509e-05,0,0,0.061347,-0.02458,0,0.00018465,0,0,0,0.034201,0.0011517,0.010606,0.061561,0.015319,0.029482,8.7429e-07,0.56,0.88,0
0.034966,-0.0078151,0.039204,-0.00091058,0.011488,-0.00040536,0,0,0.050018,-0.022044,0,-0.0018173,0,0,0,0.03921,-0.00091671,0.011488,-0.67794,0.016594,0.035586,1.6068e-06,0.6,0.88,0
0.036729,-0.0075177,0.031656,-0.00078637,0.0092608,0.00099294,0,0,0.040135,-0.017793,0,0.0036805,0,0,0,0.031686,-0.00081708,0.0092608,1.8006,0.013377,0.028819,8.704e-07,0.64,0.88,0
0.038018,-0.0075679,0.035313,-0.0010453,0.01028,0.00058183,0,0,0.032543,-0.014723,0,0.0015128,0,0,0,0.035322,-0.0010546,0.01028,0.91658,0.014849,0.03224,1.0315e-06,0.68,0.88,0
0.039333,-0.0076493,0.035602,-7.0499e-05,0.010659,-0.00014137,0,0,0.032425,-0.013949,0,-0.00036756,0,0,0,0.035602,-7.106e-05,0.010659,-0.22706,0.015397,0.031701,1.0266e-06,0.72,0.88,0
0.040613,-0.0077456,0.03519,0.00034322,0.01066,-0.00078487,0,0,0.031889,-0.013412,0,-0.0020407,0,0,0,0.035207,0.00032555,0.01066,-1.2896,0.015398,0.031033,9.808e-07,0.76,0.88,0
0.041884,-0.0078965,0.035246,0.0003799,0.010688,-0.0014748,0,0,0.031926,-0.0134,0,-0.0038345,0,0,0,0.035308,0.00031763,0.010688,-2.4178,0.015438,0.031129,9.8954e-07,0.8,0.88,0
0.043167,-0.0080863,0.035727,0.00012177,0.010755,-0.002018,0,0,0.032464,-0.013823,0,-0.0052469,0,0,0,0.035841,7.7567e-06,0.010755,-3.2336,0.015534,0.03185,1.045e-06,0.84,0.88,0
0.044481,-0.0082526,0.03569,-0.00033192,0.010608,-0.0025505,0,0,0.032608,-0.014221,0,-0.0066312,0,0,0,0.03587,-0.00051161,0.010608,-4.0299,0.015322,0.032291,1.0635e-06,0.88,0.88,0
0.045775,-0.0083832,0.0321,0.00022345,0.0096971,-0.0023696,0,0,0.040127,-0.016741,0,-0.0084031,0,0,0,0.032275,4.821e-05,0.0096971,-4.2091,0.014007,0.02865,8.9707e-07,0.92,0.88,0
0.047536,-0.0087701,0.039681,0.00043362,0.012035,-0.00076605,0,0,0.049877,-0.020508,0,-0.0021203,0,0,0,0.039703,0.00041239,0.012035,-0.93711,0.017383,0.034963,1.6132e-06,0.96,0.88,0
0.05,-0.0091822,0.035302,0.0033858,0.011606,-0.0019813,0,0,0.061609,-0.021374,0,-0.010303,0,0,0,0.035425,0.0032633,0.011606,-3.5387,0.016765,0.028907,9.0109e-07,1,0.88,0
0,0,0.035157,0.015067,0.015067,-0.0089607,0,0,0.052234,-6.9389e-18,0,-0.046596,0,0,0,0.038573,0.011652,0.015067,-20.867,0.021764,0.025387,7.8927e-07,0,0.92,0
0.0020893,-0.0018638,0.03389,0.0087624,0.012796,-0.0079736,0,0,0.054845,-0.010487,0,-0.041463,0,0,0,0.036207,0.0064458,0.012796,-16.201,0.018483,0.027149,8.4124e-07,0.04,0.92,0
0.0043876,-0.0037035,0.034215,0.0042701,0.011545,-0.0058793,0,0,0.05894,-0.018916,0,-0.030572,0,0,0,0.035327,0.0031571,0.011545,-10.72,0.016677,0.028904,8.9711e-07,0.08,0.92,0
0.0068045,-0.0052511,0.034154,0.002657,0.011043,-0.0037834,0,0,0.060088,-0.021804,0,-0.019674,0,0,0,0.034602,0.0022089,0.011043,-6.7544,0.015951,0.029003,8.7223e-07,0.12,0.92,0
0.0091946,-0.0064494,0.033232,0.0016443,0.010463,-0.0022263,0,0,0.059199,-0.022928,0,-0.011577,0,0,0,0.033388,0.0014882,0.010463,-4.0117,0.015113,0.028493,8.0282e-07,0.16,0.92,0
0.011541,-0.0073668,0.032419,0.0010237,0.010033,-0.0012227,0,0,0.058205,-0.023424,0,-0.0063582,0,0,0,0.032467,0.00097618,0.010033,-2.2269,0.014492,0.02808,7.5113e-07,0.2,0.92,0
0.013851,-0.0080605,0.031848,0.00060123,0.0097346,-0.00059437,0,0,0.057494,-0.023747,0,-0.0030907,0,0,0,0.031859,0.00058993,0.0097346,-1.0894,0.014061,0.027846,7.1923e-07,0.24,0.92,0
0.01614,-0.0085804,0.031498,0.00029068,0.0095366,-0.00023768,0,0,0.057099,-0.024039,0,-0.001236,0,0,0,0.0315,0.00028887,0.0095366,-0.43635,0.013775,0.027767,7.0248e-07,0.28,0.92,0
0.018419,-0.0089666,0.031311,5.1909e-05,0.009409,-8.3321e-05,0,0,0.056946,-0.024328,0,-0.00043327,0,0,0,0.031311,5.1687e-05,0.009409,-0.15272,0.013591,0.027789,6.9565e-07,0.32,0.92,0
0.020696,-0.0092496,0.031231,-0.0001268,0.0093314,-8.0866e-05,0,0,0.05694,-0.024591,0,-0.0004205,0,0,0,0.031232,-0.00012701,0.0093314,-0.14775,0.013479,0.027861,6.9457e-07,0.36,0.92,0
0.022974,-0.0094492,0.031211,-0.00023792,0.009292,-0.00018284,0,0,0.05699,-0.024778,0,-0.00095078,0,0,0,0.031212,-0.00023898,0.009292,-0.3331,0.013422,0.027933,6.9591e-07,0.4,0.92,0
0.025255,-0.0095725,0.031208,-0.00025742,0.0092852,-0.00033516,0,0,0.057,-0.024811,0,-0.0017428,0,0,0,0.031212,-0.00026099,0.0092852,-0.6102,0.013412,0.02795,6.9638e-07,0.44,0.92,0
0.027534,-0.0096113,0.031171,-0.00014587,0.0093075,-0.00047496,0,0,0.056845,-0.024579,0,-0.0024698,0,0,0,0.031178,-0.00015307,0.0093075,-0.8687,0.013444,0.027834,6.9161e-07,0.48,0.92,0
0.029802,-0.0095405,0.03098,0.00010467,0.0093255,-0.00051347,0,0,0.056303,-0.023974,0,-0.0026701,0,0,0,0.030989,9.6137e-05,0.0093255,-0.95249,0.01347,0.027467,6.7331e-07,0.52,0.92,0
0.032038,-0.0093079,0.030765,0.00052803,0.009388,-0.00032862,0,0,0.055581,-0.023036,0,-0.0017088,0,0,0,0.030769,0.00052446,0.009388,-0.62259,0.01356,0.02693,6.4898e-07,0.56,0.92,0
0.034249,-0.0088297,0.031329,-0.00012565,0.009361,-0.00046324,0,0,0.057117,-0.024665,0,-0.0024089,0,0,0,0.031336,-0.00013247,0.009361,-0.84357,0.013522,0.027958,7.0167e-07,0.6,0.92,0
0.036608,-0.0082748,0.035447,-0.0014718,0.010193,-0.00040449,0,0,0.045946,-0.020864,0,-0.0021189,0,0,0,0.035459,-0.0014835,0.010193,-0.80399,0.014723,0.032709,1.1781e-06,0.64,0.92,0
0.038185,-0.008152,0.028932,-0.00052608,0.0085218,-4.0039e-05,0,0,0.036392,-0.015899,0,-0.00083324,0,0,0,0.028942,-0.00053647,0.0085218,-0.37725,0.012309,0.026155,6.6989e-07,0.68,0.92,0
0.039397,-0.0081852,0.033801,5.1986e-05,0.010156,-0.00066659,0,0,0.030739,-0.013135,0,-0.0017331,0,0,0,0.033814,3.8825e-05,0.010156,-1.1311,0.01467,0.030024,8.7662e-07,0.72,0.92,0
0.040644,-0.0082654,0.034604,0.00036257,0.01049,-0.0008902,0,0,0.031348,-0.013166,0,-0.0023145,0,0,0,0.034627,0.00033944,0.01049,-1.4882,0.015152,0.030506,9.325e-07,0.76,0.92,0
0.041905,-0.008415,0.034375,0.0003844,0.010428,-0.0011374,0,0,0.031131,-0.013057,0,-0.0029571,0,0,0,0.034413,0.00034638,0.010428,-1.9143,0.015062,0.030311,9.1508e-07,0.8,0.92,0
0.043135,-0.0086153,0.033162,0.0001862,0.010005,-0.0012967,0,0,0.030105,-0.012764,0,-0.0033714,0,0,0,0.033213,0.00013529,0.010005,-2.2483,0.014451,0.029413,8.281e-07,0.84,0.92,0
0.044314,-0.008807,0.027831,-4.3885e-05,0.0083362,-0.0014258,0,0,0.034655,-0.014658,0,-0.0041362,0,0,0,0.027923,-0.00013536,0.0083362,-2.4837,0.012041,0.024928,6.0212e-07,0.88,0.92,0
0.045803,-0.0090912,0.0334,-0.00115,0.0096751,-0.0013717,0,0,0.043063,-0.019295,0,-0.0039325,0,0,0,0.033473,-0.001223,0.0096751,-1.9617,0.013975,0.030735,9.9559e-07,0.92,0.92,0
0.047991,-0.0096865,0.029055,0.00054258,0.0088794,-0.0004685,0,0,0.052457,-0.021676,0,-0.0024362,0,0,0,0.029063,0.00053488,0.0088794,-0.9411,0.012826,0.025405,5.4608e-07,0.96,0.92,0
0.05,-0.0099725,0.028348,0.0017683,0.009035,-0.001375,0,0,0.050215,-0.018893,0,-0.0071498,0,0,0,0.028419,0.0016974,0.009035,-2.9534,0.013051,0.023913,4.858e-07,1,0.92,0
0,0,0.039558,0.016953,0.016953,-0.011474,0,0,0.058771,5.2042e-18,0,-0.059665,0,0,0,0.044361,0.01215,0.016953,-22.716,0.024488,0.030099,1.281e-06,0,0.96,0
0.0023508,-0.0023866,0.036231,0.00366,0.011967,-0.0070858,0,0,0.063086,-0.021599,0,-0.036846,0,0,0,0.037706,0.0021853,0.011967,-11.757,0.017286,0.03178,1.1372e-06,0.04,0.96,0
0.0050469,-0.004593,0.036892,0.0027876,0.011904,-0.0042431,0,0,0.064969,-0.023702,0,-0.022064,0,0,0,0.037412,0.0022676,0.011904,-6.9866,0.017195,0.031453,1.107e-06,0.08,0.96,0
0.0075484,-0.0061877,0.033977,0.0014656,0.010633,-0.0021734,0,0,0.060694,-0.023834,0,-0.011302,0,0,0,0.034121,0.001321,0.010633,-3.8077,0.015358,0.029277,8.6299e-07,0.12,0.96,0
0.0099025,-0.0073979,0.032074,0.00083408,0.0098725,-0.0011497,0,0,0.057725,-0.0235,0,-0.0059786,0,0,0,0.032116,0.00079182,0.0098725,-2.1049,0.01426,0.027915,7.3167e-07,0.16,0.96,0
0.012166,-0.0083139,0.030964,0.00048276,0.009434,-0.00056034,0,0,0.055978,-0.023273,0,-0.0029138,0,0,0,0.030974,0.00047246,0.009434,-1.0528,0.013627,0.027154,6.6341e-07,0.2,0.96,0
0.014381,-0.009008,0.030364,0.00026625,0.009189,-0.0002291,0,0,0.055054,-0.023199,0,-0.0011913,0,0,0,0.030366,0.00026451,0.009189,-0.4361,0.013273,0.026778,6.2963e-07,0.24,0.96,0
0.016571,-0.009531,0.030062,0.00011469,0.0090529,-6.0421e-05,0,0,0.054622,-0.023239,0,-0.00031419,0,0,0,0.030062,0.00011457,0.0090529,-0.1156,0.013076,0.026628,6.1419e-07,0.28,0.96,0
0.01875,-0.0099222,0.029915,6.1372e-07,0.0089745,-8.6428e-06,0,0,0.054444,-0.023332,0,-4.4943e-05,0,0,0,0.029915,6.1122e-07,0.0089745,-0.016554,0.012963,0.026588,6.077e-07,0.32,0.96,0
0.020926,-0.01021,0.029825,-8.3816e-05,0.0089222,-4.3499e-05,0,0,0.054346,-0.023416,0,-0.0002262,0,0,0,0.029825,-8.3879e-05,0.0089222,-0.083331,0.012888,0.026576,6.0406e-07,0.36,0.96,0
0.023098,-0.010413,0.029725,-0.00013404,0.0088775,-0.0001363,0,0,0.054205,-0.02343,0,-0.00070876,0,0,0,0.029726,-0.00013466,0.0088775,-0.26153,0.012823,0.026529,5.9918e-07,0.4,0.96,0
0.025263,-0.010534,0.029578,-0.00013446,0.0088331,-0.00024912,0,0,0.053937,-0.023316,0,-0.0012954,0,0,0,0.02958,-0.00013654,0.0088331,-0.48035,0.012759,0.026401,5.9045e-07,0.44,0.96,0
0.027413,-0.010562,0.029359,-6.0993e-05,0.0087893,-0.00032555,0,0,0.053481,-0.023011,0,-0.0016929,0,0,0,0.029362,-6.4595e-05,0.0087893,-0.63392,0.012696,0.026149,5.7603e-07,0.48,0.96,0
0.029541,-0.010465,0.029108,0.00013145,0.0087718,-0.00028863,0,0,0.052874,-0.022465,0,-0.0015009,0,0,0,0.029111,0.00012858,0.0087718,-0.57064,0.01267,0.025771,5.5736e-07,0.52,0.96,0
0.031643,-0.010203,0.028966,0.00029774,0.0087793,-0.00015552,0,0,0.052487,-0.022052,0,-0.00080871,0,0,0,0.028967,0.0002969,0.0087793,-0.31081,0.012681,0.02551,5.4566e-07,0.56,0.96,0
0.03374,-0.0097883,0.028369,-0.00035981,0.0084027,-0.00011024,0,0,0.051912,-0.022783,0,-0.00057325,0,0,0,0.028369,-0.00036023,0.0084027,-0.21986,0.012137,0.025503,5.2529e-07,0.6,0.96,0
0.035796,-0.0092644,0.028535,-0.00081418,0.0083164,-0.00089464,0,0,0.05257,-0.02374,0,-0.0046521,0,0,0,0.028563,-0.00084143,0.0083164,-1.7443,0.012013,0.026061,5.452e-07,0.64,0.96,0
0.037946,-0.0088139,0.031259,-0.00094939,0.0090927,-0.0012829,0,0,0.040609,-0.017836,0,-0.0051008,0,0,0,0.031313,-0.0010042,0.0090927,-2.4078,0.013134,0.028643,7.8425e-07,0.68,0.96,0
0.039307,-0.0087001,0.028239,0.00070943,0.0086846,-0.0010355,0,0,0.033895,-0.014299,0,-0.0043534,0,0,0,0.028291,0.0006581,0.0086846,-2.5379,0.012544,0.024627,6.6597e-07,0.72,0.96,0
0.040657,-0.0087988,0.027948,0.00055533,0.0085509,-0.00082487,0,0,0.033621,-0.01412,0,-0.0029461,0,0,0,0.027973,0.0005304,0.0085509,-1.7635,0.012351,0.024442,6.4946e-07,0.76,0.96,0
0.041997,-0.008941,0.02733,0.00050559,0.0083505,-0.00033262,0,0,0.032897,-0.013821,0,-0.00094921,0,0,0,0.027335,0.00050039,0.0083505,-0.58737,0.012062,0.023898,6.0676e-07,0.8,0.96,0
0.043289,-0.0091074,0.026336,0.0005811,0.008075,-8.8189e-05,0,0,0.031652,-0.013332,0,0.00053934,0,0,0,0.026354,0.00056253,0.008075,0.30573,0.011664,0.022979,5.4149e-07,0.84,0.96,0
0.044529,-0.0094093,0.028245,-0.00087354,0.0082115,-0.00012542,0,0,0.036585,-0.016093,0,0.00042665,0,0,0,0.028262,-0.00089059,0.0082115,0.056316,0.011861,0.025839,5.8223e-07,0.88,0.96,0
0.046439,-0.0099906,0.025045,-0.0007406,0.0072914,2.4811e-05,0,0,0.04616,-0.020883,0,0.00012902,0,0,0,0.025045,-0.00074062,0.0072914,0.055131,0.010532,0.022854,3.676e-07,0.92,0.96,0
0.048222,-0.010504,0.024507,0.00011223,0.0073857,-0.00047658,0,0,0.044515,-0.018911,0,-0.0024782,0,0,0,0.024516,0.00010292,0.0073857,-1.1188,0.010668,0.021708,3.3299e-07,0.96,0.96,0
0.05,-0.010694,0.024841,0.00097319,0.0077442,-0.00091116,0,0,0.044451,-0.017605,0,-0.004738,0,0,0,0.024875,0.00093846,0.0077442,-2.1831,0.011186,0.021363,3.3478e-07,1,0.96,0
0,0,0.062843,0.026933,0.026933,-0.017268,0,0,0.093367,-6.9389e-18,0,-0.089794,0,0,0,0.069799,0.019977,0.026933,-21.941,0.038903,0.046735,4.8533e-06,0,1,0
0.0037347,-0.0035918,0.045354,0.0028829,0.014471,-0.0068078,0,0,0.080295,-0.030129,0,-0.035401,0,0,0,0.046418,0.0018183,0.014471,-8.8876,0.020903,0.039811,2.1715e-06,0.04,1,0
0.0064236,-0.0055997,0.03456,0.00098305,0.010663,-0.0019534,0,0,0.062132,-0.025168,0,-0.010158,0,0,0,0.034673,0.00086978,0.010663,-3.3184,0.015402,0.030125,9.2023e-07,0.08,1,0
0.0087053,-0.0071578,0.030182,-0.00038994,0.0089377,-0.00099967,0,0,0.055236,-0.024252,0,-0.0051983,0,0,0,0.030215,-0.0004226,0.0089377,-1.8708,0.01291,0.027194,6.3547e-07,0.12,1,0
0.010842,-0.0083294,0.028722,-0.00048606,0.0084706,-0.00045844,0,0,0.052652,-0.023287,0,-0.0023839,0,0,0,0.028729,-0.00049325,0.0084706,-0.89902,0.012235,0.025929,5.4801e-07,0.16,1,0
0.012918,-0.0092287,0.028153,-0.00049939,0.0082961,-0.00020379,0,0,0.051628,-0.022868,0,-0.0010597,0,0,0,0.028154,-0.00050084,0.0082961,-0.4075,0.011983,0.025425,5.1612e-07,0.2,1,0
0.014973,-0.0099164,0.028042,-0.00046094,0.0082742,-6.4264e-05,0,0,0.051395,-0.022711,0,-0.00033417,0,0,0,0.028042,-0.00046108,0.0082742,-0.12918,0.011952,0.025293,5.0925e-07,0.24,1,0
0.017029,-0.01044,0.028127,-0.00042527,0.0083106,1.4043e-07,0,0,0.051523,-0.022713,0,7.3025e-07,0,0,0,0.028127,-0.00042527,0.0083106,0.0002818,0.012004,0.02534,5.1323e-07,0.28,1,0
0.019095,-0.010833,0.028255,-0.00040323,0.0083557,1.2119e-05,0,0,0.05174,-0.022773,0,6.302e-05,0,0,0,0.028255,-0.00040324,0.0083557,0.024229,0.012069,0.025437,5.1983e-07,0.32,1,0
0.021168,-0.011123,0.028307,-0.0004026,0.0083714,-1.5362e-05,0,0,0.051833,-0.022812,0,-7.9883e-05,0,0,0,0.028307,-0.00040261,0.0083714,-0.030658,0.012092,0.025482,5.2267e-07,0.36,1,0
0.023241,-0.011324,0.028196,-0.00042537,0.0083312,-6.9046e-05,0,0,0.051649,-0.022767,0,-0.00035904,0,0,0,0.028196,-0.00042554,0.0083312,-0.13822,0.012034,0.025402,5.17e-07,0.4,1,0
0.0253,-0.011438,0.027883,-0.00046255,0.008226,-0.00012866,0,0,0.051107,-0.02259,0,-0.00066904,0,0,0,0.027883,-0.00046314,0.008226,-0.26006,0.011882,0.025154,5.0075e-07,0.44,1,0
0.02733,-0.011452,0.027433,-0.00047296,0.0080879,-0.00015959,0,0,0.050296,-0.022258,0,-0.00082984,0,0,0,0.027434,-0.00047387,0.0080879,-0.32765,0.011683,0.024763,4.7723e-07,0.48,1,0
0.029324,-0.011338,0.027083,-0.00037515,0.0080124,-0.00013073,0,0,0.049584,-0.021808,0,-0.0006798,0,0,0,0.027084,-0.00037577,0.0080124,-0.27278,0.011573,0.024373,4.5761e-07,0.52,1,0
0.031297,-0.011072,0.026886,-0.00041125,0.0079425,-1.8227e-05,0,0,0.049254,-0.02172,0,-9.4783e-05,0,0,0,0.026886,-0.00041127,0.0079425,-0.038258,0.011473,0.024226,4.4833e-07,0.56,1,0
0.033264,-0.010652,0.027124,-0.00024372,0.0080642,-0.00012894,0,0,0.049556,-0.021601,0,-0.00067048,0,0,0,0.027125,-0.00024433,0.0080642,-0.26993,0.011648,0.024304,4.5739e-07,0.6,1,0
0.035261,-0.010174,0.026001,-0.0013512,0.007395,-0.0001154,0,0,0.048376,-0.02274,0,-0.00060009,0,0,0,0.026002,-0.0013517,0.007395,-0.24173,0.010682,0.024196,4.2012e-07,0.64,1,0
0.037134,-0.0096305,0.025854,-0.00013682,0.0077152,-0.0018698,0,0,0.047162,-0.020415,0,-0.0097227,0,0,0,0.025988,-0.00027064,0.0077152,-4.0937,0.011144,0.023315,4.0285e-07,0.68,1,0
0.039034,-0.0093291,0.025038,0.0020894,0.0081382,-0.00074797,0,0,0.043939,-0.015727,0,-0.0038895,0,0,0,0.025062,0.0020651,0.0081382,-1.8648,0.011755,0.020642,3.2339e-07,0.72,1,0
0.040649,-0.009395,0.021814,0.0011594,0.0068921,-0.00049764,0,0,0.038797,-0.014905,0,-0.0025877,0,0,0,0.021826,0.0011475,0.0068921,-1.3794,0.0099552,0.018488,2.2206e-07,0.76,1,0
0.042138,-0.0095207,0.021032,0.001052,0.0066252,-1.2642e-05,0,0,0.037458,-0.01449,0,-6.5739e-05,0,0,0,0.021032,0.001052,0.0066252,-0.036253,0.0095697,0.017858,1.9933e-07,0.8,1,0
0.043646,-0.0096819,0.022751,0.0018595,0.007383,0.00023793,0,0,0.039956,-0.014361,0,0.0012372,0,0,0,0.022753,0.0018568,0.007383,0.65243,0.010664,0.018754,2.4225e-07,0.84,1,0
0.045334,-0.010136,0.02221,-0.00046214,0.0065244,0.0012744,0,0,0.040783,-0.018165,0,0.0066271,0,0,0,0.022281,-0.00053355,0.0065244,3.2072,0.0094241,0.020231,2.5741e-07,0.88,1,0
0.046909,-0.010762,0.021041,-0.0015774,0.0058391,-0.00029775,0,0,0.039525,-0.019283,0,-0.0015483,0,0,0,0.021045,-0.0015814,0.0058391,-0.75406,0.0084342,0.019978,2.2727e-07,0.92,1,0
0.048496,-0.011199,0.020996,-0.00055077,0.0061335,-0.00016895,0,0,0.038642,-0.017379,0,-0.00087852,0,0,0,0.020997,-0.00055209,0.0061335,-0.44922,0.0088596,0.019105,2.1592e-07,0.96,1,0
0.05,-0.011381,0.020348,-0.00071809,0.0058889,-0.00087249,0,0,0.037593,-0.017178,0,-0.004537,0,0,0,0.020384,-0.00075417,0.0058889,-2.3676,0.0085062,0.018722,1.996e-07,1,1,0
