"Displacements:0","Displacements:1","Stress/Strain:0","Stress/Strain:1","Stress/Strain:2","Stress/Strain:3","Stress/Strain:4","Stress/Strain:5","Stress/Strain:6","Stress/Strain:7","Stress/Strain:8","Stress/Strain:9","Stress/Strain:10","Stress/Strain:11","Stress/Strain:12","Principal Stress:0","Principal Stress:1","Principal Stress:2","Principal Stress:3","Principal Stress:4","Principal Stress:5","Principal Stress:6","nodes:0","nodes:1","nodes:2"
0,0,0.051568,0.0221,0.0221,0.015893,0,0,0.076615,6.9389e-18,0,0.082641,0,0,0,0.058506,0.015163,0.0221,23.584,0.031923,0.040324,3.0343e-06,0,0,0
0.0030646,0.0033056,0.035679,0.0026042,0.011485,0.0065979,0,0,0.062905,-0.02309,0,0.034309,0,0,0,0.036947,0.0013366,0.011485,10.875,0.016589,0.031775,1.0989e-06,0.04,0,0
0.0050324,0.0049918,0.024316,0.00030123,0.007385,0.0019562,0,0,0.044019,-0.018418,0,0.010172,0,0,0,0.024474,0.00014292,0.007385,4.6267,0.010667,0.021639,3.3069e-07,0.08,0,0
0.0065862,0.0059267,0.020821,-0.00054105,0.0060839,0.0009124,0,0,0.038316,-0.017225,0,0.0047445,0,0,0,0.02086,-0.00057995,0.0060839,2.4413,0.0087878,0.019005,2.1202e-07,0.12,0,0
0.0080976,0.006283,0.020624,-0.00067451,0.0059848,0.00016259,0,0,0.038061,-0.017314,0,0.00084548,0,0,0,0.020625,-0.00067575,0.0059848,0.43737,0.0086447,0.018874,2.0593e-07,0.16,0,0
0.0096311,0.0063925,0.020963,-0.00062155,0.0061024,0.00031251,0,0,0.038637,-0.017482,0,0.001625,0,0,0,0.020968,-0.00062607,0.0061024,0.82932,0.0088146,0.019138,2.1575e-07,0.2,0,0
0.011189,0.0064733,0.021242,0.00029228,0.0064602,0.00017445,0,0,0.038432,-0.016036,0,0.00090713,0,0,0,0.021243,0.00029082,0.0064602,0.47707,0.0093314,0.018649,2.1438e-07,0.24,0,0
0.012706,0.0065585,0.021009,0.00033038,0.0064017,-4.3751e-05,0,0,0.037978,-0.015785,0,-0.0002275,0,0,0,0.021009,0.00033028,0.0064017,-0.12122,0.0092469,0.01841,2.0689e-07,0.28,0,0
0.014227,0.0066024,0.021517,0.00036561,0.0065648,-0.00032838,0,0,0.038876,-0.016118,0,-0.0017076,0,0,0,0.021522,0.00036052,0.0065648,-0.88923,0.0094825,0.018842,2.2218e-07,0.32,0,0
0.015816,0.0066131,0.02298,0.00055687,0.007061,-0.00061071,0,0,0.041389,-0.016911,0,-0.0031757,0,0,0,0.022996,0.00054025,0.007061,-1.559,0.010199,0.020009,2.6896e-07,0.36,0,0
0.017538,0.0066417,0.025249,0.00077838,0.0078082,-0.00080882,0,0,0.045346,-0.018277,0,-0.0042059,0,0,0,0.025276,0.00075168,0.0078082,-1.891,0.011279,0.021867,3.5454e-07,0.4,0,0
0.019443,0.006812,0.026958,7.3068e-05,0.0081095,-0.00085075,0,0,0.049007,-0.020895,0,-0.0044239,0,0,0,0.026985,4.6174e-05,0.0081095,-1.8106,0.011714,0.023948,4.4528e-07,0.44,0,0
0.021458,0.0072059,0.028132,7.9422e-05,0.0084636,-0.00039007,0,0,0.051139,-0.021799,0,-0.0020284,0,0,0,0.028138,7.3999e-05,0.0084636,-0.79648,0.012225,0.02495,5.043e-07,0.48,0,0
0.023534,0.0077559,0.028585,0.00015724,0.0086227,-0.00041849,0,0,0.051902,-0.02201,0,-0.0021762,0,0,0,0.028591,0.00015108,0.0086227,-0.84323,0.012455,0.025292,5.2755e-07,0.52,0,0
0.025611,0.0083191,0.028688,-0.0003375,0.008505,-0.00022322,0,0,0.052475,-0.022991,0,-0.0011607,0,0,0,0.028689,-0.00033922,0.008505,-0.4406,0.012285,0.025771,5.4277e-07,0.56,0,0
0.027733,0.0088211,0.029286,-0.00020582,0.0087241,-0.00023262,0,0,0.053461,-0.023218,0,-0.0012096,0,0,0,0.029288,-0.00020766,0.0087241,-0.45189,0.012601,0.026198,5.7462e-07,0.6,0,0
0.029888,0.0092595,0.029768,-0.00025199,0.0088549,-0.00020498,0,0,0.054375,-0.023678,0,-0.0010659,0,0,0,0.02977,-0.00025339,0.0088549,-0.3912,0.01279,0.026662,6.0435e-07,0.64,0,0
0.032082,0.0096327,0.03028,-0.00024837,0.0090095,-0.00017594,0,0,0.055303,-0.02407,0,-0.00091491,0,0,0,0.030281,-0.00024939,0.0090095,-0.3302,0.013014,0.027114,6.3583e-07,0.68,0,0
0.034312,0.009958,0.030679,-0.00024245,0.0091308,-0.00011261,0,0,0.056024,-0.024371,0,-0.00058558,0,0,0,0.030679,-0.00024286,0.0091308,-0.20866,0.013189,0.027462,6.6102e-07,0.72,0,0
0.036564,0.010249,0.030908,-0.0002136,0.0092085,-4.1378e-05,0,0,0.05642,-0.024497,0,-0.00021517,0,0,0,0.030909,-0.00021365,0.0092085,-0.076177,0.013301,0.027643,6.7526e-07,0.76,0,0
0.038825,0.010514,0.030952,-0.00018663,0.0092295,1.6983e-05,0,0,0.056478,-0.024482,0,8.8312e-05,0,0,0,0.030952,-0.00018664,0.0092295,0.031249,0.013332,0.02766,6.7746e-07,0.8,0,0
0.041083,0.010748,0.030856,-0.0001716,0.0092052,5.1433e-05,0,0,0.056291,-0.02438,0,0.00026745,0,0,0,0.030856,-0.00017168,0.0092052,0.094978,0.013296,0.027562,6.7085e-07,0.84,0,0
0.043329,0.010944,0.030692,-0.00016805,0.009157,6.1326e-05,0,0,0.05599,-0.024245,0,0.0003189,0,0,0,0.030692,-0.00016818,0.009157,0.11386,0.013227,0.027414,6.6014e-07,0.88,0,0
0.045562,0.011093,0.030526,-0.00017117,0.0091063,5.1574e-05,0,0,0.05569,-0.024122,0,0.00026818,0,0,0,0.030526,-0.00017126,0.0091063,0.096263,0.013154,0.027269,6.4958e-07,0.92,0,0
0.047784,0.011186,0.030407,-0.0001756,0.0090694,2.8906e-05,0,0,0.055477,-0.024037,0,0.00015031,0,0,0,0.030407,-0.00017563,0.0090694,0.054155,0.0131,0.027167,6.4214e-07,0.96,0,0
0.05,0.011218,0.030364,-0.00017753,0.009056,0.00015196,0,0,0.055401,-0.024007,0,0.00079021,0,0,0,0.030365,-0.00017829,0.009056,0.28507,0.013081,0.027131,6.3955e-07,1,0,0
0,0,0.032662,0.013998,0.013998,0.011452,0,0,0.048527,3.4694e-18,0,0.059551,0,0,0,0.038103,0.0085574,0.013998,25.412,0.02022,0.027236,8.9968e-07,0,0.04,0
0.0019411,0.0023821,0.030099,0.0040646,0.010249,0.0074543,0,0,0.051609,-0.01608,0,0.038762,0,0,0,0.032082,0.0020813,0.010249,14.899,0.014804,0.026865,6.9428e-07,0.04,0.04,0
0.0041287,0.004255,0.030142,0.0031952,0.010001,0.0043415,0,0,0.052366,-0.017695,0,0.022576,0,0,0,0.030824,0.002513,0.010001,8.9302,0.014446,0.025408,6.0232e-07,0.08,0.04,0
0.0061303,0.0052377,0.026427,0.0012498,0.008303,0.0020547,0,0,0.047122,-0.018339,0,0.010684,0,0,0,0.026594,0.0010832,0.008303,4.635,0.011993,0.022776,4.0757e-07,0.12,0.04,0
0.0078985,0.0055904,0.023996,0.00037197,0.0073103,0.0016807,0,0,0.043382,-0.01804,0,0.0087399,0,0,0,0.024115,0.00025299,0.0073103,4.0492,0.010559,0.021232,3.1472e-07,0.16,0.04,0
0.0096009,0.0056932,0.022493,0.00050743,0.0069002,0.000891,0,0,0.040542,-0.016621,0,0.0046332,0,0,0,0.022529,0.00047138,0.0069002,2.3169,0.009967,0.019649,2.5365e-07,0.2,0.04,0
0.011142,0.0058319,0.021121,0.00070775,0.0065487,0.00045158,0,0,0.037889,-0.015187,0,0.0023482,0,0,0,0.021131,0.00069776,0.0065487,1.2666,0.0094592,0.018226,2.0637e-07,0.24,0.04,0
0.012632,0.0059271,0.020812,0.00065352,0.0064396,-0.00011317,0,0,0.037367,-0.015044,0,-0.00058846,0,0,0,0.020812,0.00065288,0.0064396,-0.32164,0.0093016,0.017979,1.9755e-07,0.28,0.04,0
0.014131,0.0059577,0.021124,0.00061821,0.0065226,-0.00066842,0,0,0.037963,-0.015351,0,-0.0034758,0,0,0,0.021145,0.00059645,0.0065226,-1.8651,0.0094215,0.018319,2.0796e-07,0.32,0.04,0
0.015669,0.0059366,0.021817,0.00060291,0.006726,-0.0012019,0,0,0.039237,-0.01592,0,-0.0062499,0,0,0,0.021885,0.00053503,0.006726,-3.2324,0.0097153,0.019026,2.3156e-07,0.36,0.04,0
0.01727,0.0059106,0.023013,0.00056586,0.0070735,-0.0016767,0,0,0.041441,-0.01692,0,-0.0087189,0,0,0,0.023137,0.0004413,0.0070735,-4.2485,0.010217,0.020213,2.7531e-07,0.4,0.04,0
0.018984,0.0059762,0.025008,9.6468e-05,0.0075314,-0.0018485,0,0,0.04544,-0.019331,0,-0.0096123,0,0,0,0.025145,-3.995e-05,0.0075314,-4.2207,0.010879,0.022381,3.6151e-07,0.44,0.04,0
0.020905,0.0063339,0.02651,-0.00074708,0.0077289,-0.0019539,0,0,0.048831,-0.022038,0,-0.01016,0,0,0,0.026649,-0.00088643,0.0077289,-4.0795,0.011164,0.024397,4.4445e-07,0.48,0.04,0
0.022891,0.0068755,0.028003,-0.0007853,0.0081653,-0.00093472,0,0,0.051578,-0.023272,0,-0.0048606,0,0,0,0.028033,-0.00081561,0.0081653,-1.8577,0.011794,0.02557,5.1526e-07,0.52,0.04,0
0.025032,0.0073995,0.029617,-0.00017522,0.0088324,-0.00067305,0,0,0.054039,-0.02342,0,-0.0034999,0,0,0,0.029632,-0.00019042,0.0088324,-1.2935,0.012758,0.02649,5.9468e-07,0.56,0.04,0
0.027214,0.0078924,0.030243,-6.5546e-05,0.0090533,-0.00051376,0,0,0.055094,-0.023709,0,-0.0026715,0,0,0,0.030252,-7.4252e-05,0.0090533,-0.97084,0.013077,0.026948,6.3015e-07,0.6,0.04,0
0.029439,0.0083123,0.030766,-5.1686e-05,0.0092142,-0.00047123,0,0,0.056034,-0.024091,0,-0.0024504,0,0,0,0.030773,-5.8889e-05,0.0092142,-0.87583,0.013309,0.027399,6.6289e-07,0.64,0.04,0
0.031697,0.0086699,0.031122,-0.00015127,0.0092913,-0.000377,0,0,0.056761,-0.024551,0,-0.0019604,0,0,0,0.031127,-0.00015581,0.0092913,-0.69056,0.013421,0.027791,6.8828e-07,0.68,0.04,0
0.03398,0.0089831,0.031383,-0.00019204,0.0093572,-0.00023171,0,0,0.057266,-0.024828,0,-0.0012049,0,0,0,0.031384,-0.00019374,0.0093572,-0.42044,0.013516,0.02805,7.0637e-07,0.72,0.04,0
0.036278,0.0092696,0.03152,-0.00016762,0.0094056,-7.8168e-05,0,0,0.057496,-0.02489,0,-0.00040647,0,0,0,0.03152,-0.00016782,0.0094056,-0.14134,0.013586,0.02815,7.1492e-07,0.76,0.04,0
0.03858,0.0095344,0.031547,-0.0001105,0.0094309,4.1955e-05,0,0,0.057501,-0.024808,0,0.00021817,0,0,0,0.031547,-0.00011056,0.0094309,0.075932,0.013622,0.028128,7.1539e-07,0.8,0.04,0
0.040878,0.0097728,0.031499,-4.7072e-05,0.0094357,0.00011086,0,0,0.057365,-0.024655,0,0.00057646,0,0,0,0.0315,-4.7461e-05,0.0094357,0.20134,0.013629,0.028036,7.1067e-07,0.84,0.04,0
0.043169,0.0099745,0.031415,6.7187e-06,0.0094266,0.00012924,0,0,0.05717,-0.024492,0,0.00067203,0,0,0,0.031416,6.1869e-06,0.0094266,0.23575,0.013616,0.027918,7.0372e-07,0.88,0.04,0
0.045452,0.010128,0.031329,4.4626e-05,0.0094121,0.00010773,0,0,0.056984,-0.024355,0,0.00056018,0,0,0,0.031329,4.4255e-05,0.0094121,0.19729,0.013595,0.027811,6.9702e-07,0.92,0.04,0
0.047728,0.010224,0.031267,6.6262e-05,0.0093999,6.0146e-05,0,0,0.056854,-0.024268,0,0.00031276,0,0,0,0.031267,6.6146e-05,0.0093999,0.11045,0.013578,0.027738,6.9234e-07,0.96,0.04,0
0.05,0.010257,0.031244,7.3198e-05,0.0093953,0.00015769,0,0,0.056808,-0.024237,0,0.00081998,0,0,0,0.031245,7.2401e-05,0.0093953,0.28984,0.013571,0.027713,6.9074e-07,1,0.04,0
0,0,0.032149,0.013778,0.013778,0.0097081,0,0,0.047764,-1.301e-18,0,0.050482,0,0,0,0.036328,0.0095985,0.013778,23.293,0.019901,0.024904,7.1858e-07,0,0.08,0
0.0019106,0.0020193,0.031439,0.0095321,0.012291,0.0088982,0,0,0.049785,-0.0071743,0,0.046271,0,0,0,0.034598,0.0063733,0.012291,19.544,0.017754,0.02578,7.2611e-07,0.04,0.08,0
0.0039828,0.0035761,0.030845,0.0047433,0.010676,0.0061219,0,0,0.052437,-0.015426,0,0.031834,0,0,0,0.032209,0.0033787,0.010676,12.565,0.015421,0.025962,6.6514e-07,0.08,0.08,0
0.0061055,0.0044596,0.031188,0.002925,0.010234,0.0044368,0,0,0.054481,-0.019003,0,0.023072,0,0,0,0.031869,0.0022449,0.010234,8.7152,0.014783,0.026547,6.7558e-07,0.12,0.08,0
0.0083413,0.0048398,0.0333,0.00075353,0.010216,0.0029047,0,0,0.042281,-0.016739,0,0.01157,0,0,0,0.033577,0.00047696,0.010216,5.3451,0.014757,0.029469,9.203e-07,0.16,0.08,0
0.0097603,0.0050628,0.029299,0.0010258,0.0090975,0.0016067,0,0,0.035016,-0.014433,0,0.0064815,0,0,0,0.029407,0.00091803,0.0090975,3.6849,0.013141,0.025412,7.3887e-07,0.2,0.08,0
0.011143,0.0052584,0.029031,0.0010922,0.0090369,0.00062115,0,0,0.034656,-0.013912,0,0.0025325,0,0,0,0.029048,0.0010751,0.0090369,1.4859,0.013053,0.024963,7.1095e-07,0.24,0.08,0
0.012533,0.0053551,0.029273,0.0010743,0.0091041,-0.00029906,0,0,0.034959,-0.014014,0,-0.0010358,0,0,0,0.029276,0.0010711,0.0091041,-0.60583,0.01315,0.025169,7.2892e-07,0.28,0.08,0
0.013939,0.0053743,0.029596,0.0010287,0.0091875,-0.0010752,0,0,0.035375,-0.014253,0,-0.0040443,0,0,0,0.029639,0.00098612,0.0091875,-2.3251,0.013271,0.025559,7.5837e-07,0.32,0.08,0
0.015363,0.0053395,0.029916,0.0010162,0.0092797,-0.0017701,0,0,0.03577,-0.014475,0,-0.0067855,0,0,0,0.030033,0.0008993,0.0092797,-3.8308,0.013404,0.025979,7.8967e-07,0.36,0.08,0
0.016801,0.0052881,0.030124,0.00085931,0.0092951,-0.0024109,0,0,0.036104,-0.014857,0,-0.009433,0,0,0,0.030345,0.00063893,0.0092951,-5.202,0.013426,0.026464,8.1869e-07,0.4,0.08,0
0.018251,0.0052655,0.030498,0.00035704,0.0092566,-0.0027262,0,0,0.036819,-0.016011,0,-0.011187,0,0,0,0.030797,5.8318e-05,0.0092566,-5.8487,0.013371,0.027337,8.6827e-07,0.44,0.08,0
0.019746,0.0054429,0.033961,-0.0016044,0.0097069,-0.0030028,0,0,0.044369,-0.019988,0,-0.01145,0,0,0,0.034218,-0.0018618,0.0097069,-4.948,0.014021,0.031917,1.0448e-06,0.48,0.08,0
0.02208,0.0058942,0.030971,-0.00093209,0.0090115,-0.0022676,0,0,0.057093,-0.025853,0,-0.011791,0,0,0,0.031131,-0.0010925,0.0090115,-4.0454,0.013017,0.028546,7.0973e-07,0.52,0.08,0
0.024314,0.0064455,0.030792,-0.000681,0.0090334,-0.0011802,0,0,0.056573,-0.025257,0,-0.0061369,0,0,0,0.030837,-0.00072519,0.0090334,-2.1444,0.013048,0.027989,6.8203e-07,0.56,0.08,0
0.026606,0.0069244,0.031607,2.6472e-05,0.0094899,-0.001003,0,0,0.057503,-0.024605,0,-0.0052158,0,0,0,0.031638,-5.3543e-06,0.0094899,-1.8174,0.013708,0.028125,7.1907e-07,0.6,0.08,0
0.028914,0.0073321,0.031848,-0.0001906,0.0094972,-0.00086229,0,0,0.058112,-0.025188,0,-0.0044839,0,0,0,0.031871,-0.00021379,0.0094972,-1.5406,0.013718,0.028498,7.4016e-07,0.64,0.08,0
0.031255,0.0076686,0.032126,-0.00038566,0.0095221,-0.00064036,0,0,0.05877,-0.02576,0,-0.0033299,0,0,0,0.032139,-0.00039827,0.0095221,-1.1279,0.013754,0.028884,7.6348e-07,0.68,0.08,0
0.033616,0.0079717,0.032278,-0.00041857,0.0095577,-0.00034834,0,0,0.059072,-0.025938,0,-0.0018113,0,0,0,0.032281,-0.00042228,0.0095577,-0.61032,0.013806,0.02903,7.7423e-07,0.72,0.08,0
0.035981,0.0082583,0.032298,-0.00034226,0.0095868,-8.1292e-05,0,0,0.059049,-0.025816,0,-0.00042272,0,0,0,0.032298,-0.00034247,0.0095868,-0.1427,0.013848,0.028981,7.7348e-07,0.76,0.08,0
0.03834,0.0085291,0.032245,-0.0002135,0.0096093,0.00011005,0,0,0.058852,-0.025539,0,0.00057224,0,0,0,0.032245,-0.00021388,0.0096093,0.19425,0.01388,0.028831,7.6646e-07,0.8,0.08,0
0.040689,0.0087756,0.032159,-8.156e-05,0.0096232,0.0002106,0,0,0.058593,-0.025232,0,0.0010951,0,0,0,0.03216,-8.2936e-05,0.0096232,0.37425,0.0139,0.028651,7.5718e-07,0.84,0.08,0
0.043027,0.008985,0.032071,2.5734e-05,0.0096289,0.00022883,0,0,0.058348,-0.024968,0,0.0011899,0,0,0,0.032072,2.41e-05,0.0096289,0.40912,0.013908,0.028487,7.4832e-07,0.88,0.08,0
0.045357,0.0091446,0.031998,9.9078e-05,0.0096292,0.000185,0,0,0.058159,-0.024778,0,0.00096201,0,0,0,0.031999,9.8005e-05,0.0096292,0.33228,0.013909,0.028363,7.4137e-07,0.92,0.08,0
0.04768,0.0092446,0.031952,0.00014004,0.0096275,0.00010181,0,0,0.058043,-0.024667,0,0.00052939,0,0,0,0.031952,0.00013971,0.0096275,0.18336,0.013906,0.028288,7.3704e-07,0.96,0.08,0
0.05,0.0092786,0.031936,0.000153,0.0096266,0.00016356,0,0,0.058003,-0.024631,0,0.0008505,0,0,0,0.031936,0.00015215,0.0096266,0.29484,0.013905,0.028264,7.3566e-07,1,0.08,0
0,0,0.034774,0.014903,0.014903,0.0086928,0,0,0.051665,-1.301e-18,0,0.045203,0,0,0,0.03804,0.011637,0.014903,20.592,0.021527,0.024931,7.5003e-07,0,0.12,0
0.0020666,0.0018081,0.033959,0.011367,0.013598,0.0082968,0,0,0.052939,-0.0058002,0,0.043143,0,0,0,0.036679,0.0086473,0.013598,18.148,0.019641,0.025913,7.8487e-07,0.04,0.12,0
0.0042351,0.003021,0.035599,0.0086116,0.013263,0.0067874,0,0,0.058072,-0.012094,0,0.035295,0,0,0,0.037209,0.0070007,0.013263,13.352,0.019158,0.027615,8.9695e-07,0.08,0.12,0
0.0067124,0.0037174,0.040661,0.005268,0.013779,0.0049008,0,0,0.048787,-0.015295,0,0.019217,0,0,0,0.041361,0.0045683,0.013779,8.0888,0.019903,0.033161,1.5594e-06,0.12,0.12,0
0.008401,0.0042108,0.031912,0.0015858,0.010049,0.0022475,0,0,0.038975,-0.014934,0,0.0093,0,0,0,0.032112,0.0013856,0.010049,4.7221,0.014516,0.027441,8.4925e-07,0.16,0.12,0
0.0097008,0.0045386,0.037159,0.0017285,0.011666,0.0013056,0,0,0.033141,-0.012919,0,0.0033945,0,0,0,0.037207,0.0016805,0.011666,2.1074,0.016851,0.031735,1.1103e-06,0.2,0.12,0
0.011052,0.0047189,0.038359,0.0019261,0.012086,0.00027073,0,0,0.034156,-0.013207,0,0.00070391,0,0,0,0.038361,0.0019241,0.012086,0.42573,0.017457,0.032568,1.2093e-06,0.24,0.12,0
0.012433,0.004806,0.038876,0.0018929,0.012231,-0.00051103,0,0,0.034639,-0.013439,0,-0.0013287,0,0,0,0.038883,0.0018859,0.012231,-0.79153,0.017666,0.033061,1.2619e-06,0.28,0.12,0
0.013823,0.0048175,0.038919,0.0017372,0.012197,-0.0011973,0,0,0.034739,-0.013598,0,-0.003113,0,0,0,0.038957,0.0016987,0.012197,-1.8424,0.017618,0.033276,1.2768e-06,0.32,0.12,0
0.015212,0.0047786,0.038648,0.001519,0.01205,-0.0017395,0,0,0.034577,-0.01369,0,-0.0045227,0,0,0,0.03873,0.0014377,0.01205,-2.6765,0.017406,0.03328,1.2644e-06,0.36,0.12,0
0.01659,0.004722,0.037821,0.00099773,0.011646,-0.0020274,0,0,0.034028,-0.013842,0,-0.0052713,0,0,0,0.037933,0.00088644,0.011646,-3.1419,0.016822,0.033009,1.2073e-06,0.4,0.12,0
0.017935,0.0046953,0.036279,-0.00016809,0.010833,-0.0021804,0,0,0.033079,-0.014302,0,-0.005669,0,0,0,0.036409,-0.00029806,0.010833,-3.4114,0.015648,0.032599,1.1052e-06,0.44,0.12,0
0.019236,0.0046891,0.030891,-0.0013708,0.0088561,-0.0015891,0,0,0.039326,-0.018006,0,-0.0065839,0,0,0,0.030986,-0.0014658,0.0088561,-3.168,0.012792,0.028719,8.3875e-07,0.48,0.12,0
0.020945,0.0048073,0.038219,-0.0021353,0.010825,-0.0021005,0,0,0.049863,-0.023138,0,-0.0082543,0,0,0,0.038335,-0.0022508,0.010825,-3.1305,0.015637,0.035884,1.5053e-06,0.52,0.12,0
0.023511,0.0053789,0.033871,-0.00053912,0.0099995,-0.0016757,0,0,0.062065,-0.0274,0,-0.0087138,0,0,0,0.033952,-0.00062054,0.0099995,-2.7815,0.014444,0.030674,9.0558e-07,0.56,0.12,0
0.02591,0.005924,0.033127,-3.8796e-05,0.0099264,-0.0012551,0,0,0.060321,-0.02591,0,-0.0065265,0,0,0,0.033174,-8.6225e-05,0.0099264,-2.1641,0.014338,0.029555,8.3111e-07,0.6,0.12,0
0.028336,0.0062973,0.033297,-0.00052156,0.0098327,-0.0010872,0,0,0.061008,-0.026921,0,-0.0056535,0,0,0,0.033332,-0.00055647,0.0098327,-1.8394,0.014203,0.030072,8.5549e-07,0.64,0.12,0
0.030791,0.006609,0.033403,-0.00073427,0.0098005,-0.00069657,0,0,0.061366,-0.02739,0,-0.0036222,0,0,0,0.033417,-0.00074848,0.0098005,-1.1685,0.014156,0.030301,8.67e-07,0.68,0.12,0
0.033245,0.0069081,0.033309,-0.00074009,0.0097708,-0.00028725,0,0,0.0612,-0.027328,0,-0.0014937,0,0,0,0.033312,-0.00074251,0.0097708,-0.48332,0.014113,0.030203,8.5876e-07,0.72,0.12,0
0.035687,0.0072044,0.033152,-0.00057443,0.0097731,3.7496e-05,0,0,0.060784,-0.026904,0,0.00019498,0,0,0,0.033152,-0.00057447,0.0097731,0.0637,0.014117,0.029926,8.422e-07,0.76,0.12,0
0.038108,0.0074913,0.032981,-0.00033682,0.0097933,0.00024246,0,0,0.060289,-0.026338,0,0.0012608,0,0,0,0.032983,-0.00033859,0.0097933,0.41692,0.014146,0.029587,8.2342e-07,0.8,0.12,0
0.04051,0.0077542,0.032831,-0.00010777,0.009817,0.00032813,0,0,0.059837,-0.025804,0,0.0017063,0,0,0,0.032834,-0.00011104,0.009817,0.57069,0.01418,0.029273,8.0649e-07,0.84,0.12,0
0.042895,0.007977,0.032717,7.0159e-05,0.0098362,0.00031821,0,0,0.05949,-0.025392,0,0.0016547,0,0,0,0.03272,6.7058e-05,0.0098362,0.5584,0.014208,0.029029,7.9348e-07,0.88,0.12,0
0.045269,0.008146,0.032642,0.00018739,0.0098488,0.000243,0,0,0.059262,-0.02512,0,0.0012636,0,0,0,0.032644,0.00018557,0.0098488,0.42896,0.014226,0.028866,7.8482e-07,0.92,0.12,0
0.047636,0.0082511,0.032601,0.00025085,0.0098554,0.00012991,0,0,0.059137,-0.024972,0,0.00067552,0,0,0,0.032601,0.00025033,0.0098554,0.23008,0.014236,0.028777,7.8006e-07,0.96,0.12,0
0.05,0.0082868,0.032588,0.00027062,0.0098575,0.00017155,0,0,0.059098,-0.024926,0,0.00089207,0,0,0,0.032589,0.00026972,0.0098575,0.30414,0.014239,0.02875,7.7865e-07,1,0.12,0
0,0,0.039393,0.016883,0.016883,0.0074773,0,0,0.058526,8.6736e-19,0,0.038882,0,0,0,0.04165,0.014625,0.016883,16.799,0.024386,0.02597,8.7668e-07,0,0.16,0
0.002341,0.0015553,0.039228,0.013054,0.015685,0.0072726,0,0,0.061213,-0.0068391,0,0.037817,0,0,0,0.041113,0.011169,0.015685,14.531,0.022656,0.027961,1.0247e-06,0.04,0.16,0
0.004897,0.0026086,0.046034,0.011922,0.017387,0.0071485,0,0,0.05169,-0.0095917,0,0.027367,0,0,0,0.047512,0.010444,0.017387,11.772,0.025114,0.03413,1.9881e-06,0.08,0.16,0
0.0067204,0.0031708,0.035452,0.0049033,0.012107,0.0031138,0,0,0.041746,-0.012781,0,0.01166,0,0,0,0.035772,0.0045833,0.012107,5.9607,0.017487,0.028191,1.0396e-06,0.12,0.16,0
0.0080831,0.0036768,0.039918,0.0032939,0.012963,0.0019331,0,0,0.035041,-0.012571,0,0.005026,0,0,0,0.040019,0.0031921,0.012963,3.013,0.018725,0.033044,1.3214e-06,0.16,0.16,0
0.0095237,0.0040293,0.040513,0.0032364,0.013125,0.0010402,0,0,0.035605,-0.012855,0,0.0027047,0,0,0,0.040542,0.0032074,0.013125,1.5973,0.018958,0.033496,1.375e-06,0.2,0.16,0
0.010932,0.0042018,0.039769,0.0029156,0.012805,0.00015468,0,0,0.035053,-0.012857,0,0.00040216,0,0,0,0.03977,0.0029149,0.012805,0.24047,0.018497,0.033039,1.308e-06,0.24,0.16,0
0.012328,0.0042799,0.039381,0.0025895,0.012591,-0.00044888,0,0,0.034827,-0.013002,0,-0.0011671,0,0,0,0.039386,0.0025841,0.012591,-0.69891,0.018187,0.032958,1.2834e-06,0.28,0.16,0
0.013718,0.0042865,0.039019,0.0023118,0.012399,-0.00096174,0,0,0.034606,-0.013114,0,-0.0025005,0,0,0,0.039045,0.0022866,0.012399,-1.4998,0.01791,0.032889,1.2617e-06,0.32,0.16,0
0.015096,0.0042442,0.038539,0.0019474,0.012146,-0.0013026,0,0,0.034311,-0.013258,0,-0.0033867,0,0,0,0.038586,0.0019011,0.012146,-2.0362,0.017544,0.032785,1.232e-06,0.36,0.16,0
0.016463,0.0041807,0.038153,0.0013921,0.011864,-0.0013807,0,0,0.034176,-0.013613,0,-0.0035898,0,0,0,0.038205,0.0013403,0.011864,-2.1479,0.017136,0.032891,1.2167e-06,0.4,0.16,0
0.01783,0.0041214,0.038209,0.00023707,0.011534,-0.0013155,0,0,0.034678,-0.014686,0,-0.0034203,0,0,0,0.038254,0.00019155,0.011534,-1.9818,0.01666,0.033848,1.264e-06,0.44,0.16,0
0.019237,0.0040359,0.037482,-0.0017336,0.010724,-0.00096302,0,0,0.034784,-0.016195,0,-0.0025039,0,0,0,0.037505,-0.0017572,0.010724,-1.4059,0.015491,0.034746,1.2549e-06,0.48,0.16,0
0.020613,0.0039625,0.033463,-0.0017275,0.0095205,-0.00037845,0,0,0.042917,-0.019902,0,-0.0012375,0,0,0,0.033467,-0.0017318,0.0095205,-0.5775,0.013752,0.031138,1.0495e-06,0.52,0.16,0
0.0225,0.0042535,0.041687,-0.0017599,0.011978,-0.001821,0,0,0.053658,-0.02443,0,-0.006884,0,0,0,0.041764,-0.0018377,0.011978,-2.4802,0.017302,0.038598,1.9728e-06,0.56,0.16,0
0.025165,0.0048516,0.036354,0.00026134,0.010984,-0.00076448,0,0,0.06596,-0.02788,0,-0.0039753,0,0,0,0.03637,0.00024516,0.010984,-1.2129,0.015866,0.032131,1.0842e-06,0.6,0.16,0
0.027777,0.0051785,0.035329,-0.00071991,0.010383,-0.00085373,0,0,0.064861,-0.028867,0,-0.0044394,0,0,0,0.035349,-0.00074012,0.010383,-1.3559,0.014997,0.032012,1.0248e-06,0.64,0.16,0
0.030354,0.0054774,0.034713,-0.0011215,0.010077,-0.00043203,0,0,0.064052,-0.029117,0,-0.0022465,0,0,0,0.034718,-0.0011267,0.010077,-0.69064,0.014556,0.031761,9.8191e-07,0.68,0.16,0
0.032901,0.0057855,0.034277,-0.001089,0.0099563,-1.6514e-05,0,0,0.063233,-0.028718,0,-8.5874e-05,0,0,0,0.034277,-0.001089,0.0099563,-0.026755,0.014381,0.031339,9.4434e-07,0.72,0.16,0
0.035413,0.006106,0.033929,-0.00079781,0.0099392,0.00028869,0,0,0.062372,-0.027916,0,0.0015012,0,0,0,0.033931,-0.00080021,0.0099392,0.47627,0.014357,0.030799,9.087e-07,0.76,0.16,0
0.037891,0.006422,0.033654,-0.00042346,0.0099693,0.00044292,0,0,0.061581,-0.027021,0,0.0023032,0,0,0,0.03366,-0.00042922,0.0099693,0.74452,0.0144,0.030261,8.7745e-07,0.8,0.16,0
0.04034,0.0067112,0.033458,-8.962e-05,0.010011,0.00046618,0,0,0.060963,-0.02626,0,0.0024241,0,0,0,0.033464,-9.6097e-05,0.010011,0.79599,0.01446,0.029821,8.5335e-07,0.84,0.16,0
0.042768,0.0069536,0.033336,0.00015399,0.010047,0.0003995,0,0,0.060551,-0.025722,0,0.0020774,0,0,0,0.033341,0.00014918,0.010047,0.68969,0.014512,0.029515,8.3729e-07,0.88,0.16,0
0.045184,0.0071351,0.033271,0.00030485,0.010073,0.00028364,0,0,0.060316,-0.025397,0,0.001475,0,0,0,0.033274,0.00030241,0.010073,0.49292,0.01455,0.029333,8.2806e-07,0.92,0.16,0
0.047593,0.0072468,0.033244,0.00038283,0.010088,0.00014553,0,0,0.060205,-0.025234,0,0.00075677,0,0,0,0.033245,0.00038218,0.010088,0.25374,0.014572,0.029243,8.2369e-07,0.96,0.16,0
0.05,0.0072845,0.033237,0.00040622,0.010093,0.00018127,0,0,0.060174,-0.025185,0,0.0009426,0,0,0,0.033238,0.00040522,0.010093,0.31634,0.014579,0.029219,8.2254e-07,1,0.16,0
0,0,0.041787,0.017909,0.017909,0.0060624,0,0,0.062084,-4.3368e-19,0,0.031524,0,0,0,0.043238,0.016458,0.017909,13.46,0.025868,0.026085,9.0211e-07,0,0.2,0
0.0024834,0.001261,0.041125,0.013919,0.016513,0.0057695,0,0,0.063991,-0.0067449,0,0.030002,0,0,0,0.042298,0.012746,0.016513,11.492,0.023852,0.02786,1.0425e-06,0.04,0.2,0
0.0051192,0.0022393,0.041404,0.01097,0.015712,0.005427,0,0,0.049873,-0.0082197,0,0.020844,0,0,0,0.042343,0.010031,0.015712,9.8242,0.022695,0.029902,1.1998e-06,0.08,0.2,0
0.0064732,0.0027303,0.041836,0.0070619,0.014669,0.0035158,0,0,0.035317,-0.0098897,0,0.009141,0,0,0,0.042188,0.00671,0.014669,5.7157,0.021189,0.032244,1.3744e-06,0.12,0.2,0
0.0079446,0.0032051,0.042447,0.0054896,0.014381,0.0028712,0,0,0.036486,-0.011559,0,0.0074652,0,0,0,0.042669,0.0052679,0.014381,4.416,0.020773,0.033779,1.5046e-06,0.16,0.2,0
0.0093921,0.0035102,0.041381,0.0039526,0.0136,0.0015055,0,0,0.036115,-0.012542,0,0.0039143,0,0,0,0.041441,0.0038921,0.0136,2.2997,0.019644,0.033759,1.439e-06,0.2,0.2,0
0.010834,0.0036904,0.040861,0.0035753,0.013331,0.00061933,0,0,0.035789,-0.012682,0,0.0016102,0,0,0,0.040871,0.003565,0.013331,0.95135,0.019256,0.033508,1.3933e-06,0.24,0.2,0
0.012255,0.0037658,0.040171,0.0031809,0.013006,-1.4103e-05,0,0,0.035315,-0.012772,0,-3.6669e-05,0,0,0,0.040171,0.0031809,0.013006,-0.021845,0.018786,0.033187,1.3375e-06,0.28,0.2,0
0.013659,0.0037684,0.039535,0.0027637,0.01269,-0.00044876,0,0,0.034899,-0.012904,0,-0.0011668,0,0,0,0.039541,0.0027582,0.01269,-0.69909,0.018329,0.032959,1.2916e-06,0.32,0.2,0
0.015047,0.003718,0.038952,0.0022293,0.012354,-0.00072788,0,0,0.034577,-0.013163,0,-0.0018925,0,0,0,0.038967,0.0022148,0.012354,-1.1351,0.017845,0.032876,1.2569e-06,0.36,0.2,0
0.016425,0.003633,0.038487,0.0013857,0.011962,-0.00089039,0,0,0.034483,-0.013749,0,-0.002315,0,0,0,0.038509,0.0013644,0.011962,-1.374,0.017278,0.033141,1.2454e-06,0.4,0.2,0
0.017806,0.0035205,0.03803,-2.3701e-05,0.011402,-0.0010227,0,0,0.034616,-0.014853,0,-0.002659,0,0,0,0.038057,-5.1167e-05,0.011402,-1.5384,0.016469,0.033867,1.2531e-06,0.44,0.2,0
0.019194,0.0033935,0.038103,-0.0012677,0.011051,-0.0012689,0,0,0.035169,-0.016014,0,-0.0032992,0,0,0,0.038144,-0.0013086,0.011051,-1.8441,0.015962,0.034952,1.3046e-06,0.48,0.2,0
0.020619,0.0032638,0.03736,-0.0028156,0.010363,-0.00034729,0,0,0.035095,-0.017132,0,-0.00090294,0,0,0,0.037363,-0.0028186,0.010363,-0.49523,0.014969,0.035477,1.2721e-06,0.52,0.2,0
0.022002,0.0033504,0.036264,-0.0024124,0.010155,-0.00063292,0,0,0.050597,-0.021784,0,-0.0011253,0,0,0,0.036299,-0.0024467,0.010155,-0.76172,0.014669,0.034332,1.094e-06,0.56,0.2,0
0.024667,0.0036936,0.036866,0.00023112,0.011129,-4.0075e-05,0,0,0.066915,-0.028334,0,-0.00020839,0,0,0,0.036866,0.00023107,0.011129,-0.062676,0.016075,0.032582,1.1297e-06,0.6,0.2,0
0.027355,0.0039879,0.036232,-0.00098487,0.010574,-0.00014841,0,0,0.066711,-0.030054,0,-0.00077172,0,0,0,0.036233,-0.00098546,0.010574,-0.22847,0.015274,0.032994,1.1105e-06,0.64,0.2,0
0.030004,0.0042797,0.035437,-0.0015245,0.010174,7.9455e-05,0,0,0.065684,-0.030415,0,0.00041317,0,0,0,0.035437,-0.0015247,0.010174,0.12317,0.014695,0.03272,1.0547e-06,0.68,0.2,0
0.03261,0.0046106,0.034875,-0.0014177,0.010037,0.00040683,0,0,0.064578,-0.029783,0,0.0021155,0,0,0,0.03488,-0.0014222,0.010037,0.64216,0.014498,0.032142,1.0036e-06,0.72,0.2,0
0.03517,0.0049711,0.034462,-0.00095217,0.010053,0.00061576,0,0,0.063464,-0.028614,0,0.0032019,0,0,0,0.034473,-0.00096288,0.010053,0.99581,0.014521,0.031412,9.5707e-07,0.76,0.2,0
0.037687,0.0053296,0.034172,-0.00042458,0.010124,0.0006624,0,0,0.062524,-0.027427,0,0.0034445,0,0,0,0.034184,-0.00043725,0.010124,1.0965,0.014624,0.030734,9.1912e-07,0.8,0.2,0
0.040172,0.0056534,0.034,2.3897e-06,0.010201,0.00058156,0,0,0.061879,-0.026516,0,0.0030241,0,0,0,0.03401,-7.5556e-06,0.010201,0.97971,0.014734,0.030235,8.9327e-07,0.84,0.2,0
0.042638,0.0059193,0.033924,0.00028248,0.010262,0.00044258,0,0,0.061521,-0.025947,0,0.0023014,0,0,0,0.03393,0.00027666,0.010262,0.75359,0.014823,0.029937,8.789e-07,0.88,0.2,0
0.045094,0.0061142,0.03391,0.00044328,0.010306,0.00028794,0,0,0.061371,-0.025643,0,0.0014973,0,0,0,0.033913,0.0004408,0.010306,0.4929,0.014887,0.029791,8.7289e-07,0.92,0.2,0
0.047547,0.0062324,0.033918,0.00051712,0.01033,0.0001398,0,0,0.061328,-0.025515,0,0.00072694,0,0,0,0.033919,0.00051653,0.01033,0.2398,0.014922,0.029736,8.7117e-07,0.96,0.2,0
0.05,0.006272,0.033924,0.00053768,0.010338,0.00019009,0,0,0.061322,-0.025482,0,0.00098846,0,0,0,0.033925,0.0005366,0.010338,0.32621,0.014933,0.029725,8.7107e-07,1,0.2,0
0,0,0.042099,0.018042,0.018042,0.0048831,0,0,0.062547,2.1684e-19,0,0.025392,0,0,0,0.043052,0.017089,0.018042,11.048,0.026061,0.0255,8.476e-07,0,0.24,0
0.0025019,0.0010157,0.041243,0.01458,0.016747,0.0047684,0,0,0.063689,-0.0056342,0,0.024796,0,0,0,0.04207,0.013753,0.016747,9.8406,0.02419,0.026945,9.6307e-07,0.04,0.24,0
0.0050952,0.0019511,0.042077,0.012046,0.016237,0.0043325,0,0,0.0498,-0.0072646,0,0.017131,0,0,0,0.042697,0.011425,0.016237,8.1085,0.023453,0.02918,1.1599e-06,0.08,0.24,0
0.0064859,0.0023796,0.042263,0.0086998,0.015289,0.0040793,0,0,0.035066,-0.0085657,0,0.010606,0,0,0,0.042752,0.0082111,0.015289,6.8313,0.022084,0.031602,1.3508e-06,0.12,0.24,0
0.0079005,0.0027521,0.042056,0.006283,0.014502,0.0030525,0,0,0.035821,-0.010684,0,0.0079365,0,0,0,0.042315,0.0060244,0.014502,4.8424,0.020947,0.032882,1.425e-06,0.16,0.24,0
0.0093516,0.003026,0.042039,0.0050095,0.014115,0.002071,0,0,0.036302,-0.011837,0,0.0053847,0,0,0,0.042155,0.004894,0.014115,3.1912,0.020388,0.033613,1.4669e-06,0.2,0.24,0
0.010805,0.0031873,0.041568,0.0041913,0.013728,0.0012174,0,0,0.036193,-0.012398,0,0.0031652,0,0,0,0.041608,0.0041517,0.013728,1.8635,0.019829,0.033704,1.4444e-06,0.24,0.24,0
0.012247,0.0032582,0.040958,0.0036621,0.013386,0.00062643,0,0,0.035843,-0.012641,0,0.0016287,0,0,0,0.040968,0.0036516,0.013386,0.96199,0.019335,0.033527,1.3996e-06,0.28,0.24,0
0.013672,0.0032542,0.040254,0.0031139,0.01301,0.00021451,0,0,0.035417,-0.012866,0,0.00055772,0,0,0,0.040255,0.0031126,0.01301,0.3309,0.018793,0.033315,1.3493e-06,0.32,0.24,0
0.01508,0.0031912,0.039531,0.0024075,0.012582,-5.8425e-05,0,0,0.035034,-0.013226,0,-0.0001519,0,0,0,0.039531,0.0024074,0.012582,-0.090171,0.018173,0.033226,1.3055e-06,0.36,0.24,0
0.016475,0.0030808,0.038747,0.0014047,0.012046,-0.000252,0,0,0.034712,-0.013833,0,-0.00065519,0,0,0,0.038749,0.001403,0.012046,-0.38662,0.017399,0.033324,1.2677e-06,0.4,0.24,0
0.017857,0.0029331,0.037903,0.00015125,0.011416,-0.00046281,0,0,0.034433,-0.014645,0,-0.0012033,0,0,0,0.037909,0.00014558,0.011416,-0.70227,0.01649,0.033578,1.2316e-06,0.44,0.24,0
0.01923,0.0027548,0.036853,-0.0014066,0.010634,-0.00059573,0,0,0.034085,-0.015653,0,-0.0015489,0,0,0,0.036862,-0.0014158,0.010634,-0.89185,0.01536,0.033899,1.1821e-06,0.48,0.24,0
0.020584,0.0025919,0.036482,-0.0030377,0.010033,-0.00050263,0,0,0.034384,-0.016992,0,-0.0013068,0,0,0,0.036489,-0.0030441,0.010033,-0.72855,0.014493,0.034884,1.1927e-06,0.52,0.24,0
0.02198,0.0025107,0.035632,-0.0021663,0.01004,0.00022849,0,0,0.04909,-0.021157,0,0.0014389,0,0,0,0.035639,-0.0021732,0.01004,0.44484,0.014502,0.033504,1.045e-06,0.56,0.24,0
0.024511,0.0025849,0.035567,0.00047559,0.010813,0.00038481,0,0,0.06436,-0.026876,0,0.002001,0,0,0,0.035571,0.00047137,0.010813,0.62822,0.015618,0.03124,1.007e-06,0.6,0.24,0
0.027129,0.0027742,0.035543,-0.0012555,0.010286,0.00039764,0,0,0.065667,-0.030008,0,0.0020677,0,0,0,0.035547,-0.0012598,0.010286,0.61903,0.014858,0.032605,1.057e-06,0.64,0.24,0
0.029765,0.0030442,0.035245,-0.0018936,0.010005,0.00056334,0,0,0.065623,-0.030937,0,0.0029294,0,0,0,0.035254,-0.0019021,0.010005,0.86883,0.014452,0.032862,1.0489e-06,0.68,0.24,0
0.032379,0.0034028,0.034888,-0.0016968,0.0099572,0.00078746,0,0,0.064819,-0.0303,0,0.0040948,0,0,0,0.034904,-0.0017137,0.0099572,1.2325,0.014383,0.0324,1.0136e-06,0.72,0.24,0
0.03495,0.0038169,0.034639,-0.00098935,0.010095,0.00089073,0,0,0.063814,-0.028819,0,0.0046318,0,0,0,0.034661,-0.0010116,0.010095,1.4312,0.014581,0.031618,9.7399e-07,0.76,0.24,0
0.037484,0.0042279,0.034497,-0.00030105,0.010259,0.0007823,0,0,0.06302,-0.027456,0,0.004068,0,0,0,0.034515,-0.00031863,0.010259,1.2872,0.014818,0.030932,9.4254e-07,0.8,0.24,0
0.039992,0.00459,0.034457,0.00015704,0.010384,0.00059783,0,0,0.06259,-0.026591,0,0.0031087,0,0,0,0.034467,0.00014663,0.010384,0.99823,0.015,0.030518,9.253e-07,0.84,0.24,0
0.042491,0.0048779,0.034523,0.00044944,0.010492,0.00039602,0,0,0.062481,-0.02611,0,0.0020593,0,0,0,0.034527,0.00044483,0.010492,0.66581,0.015155,0.030334,9.2134e-07,0.88,0.24,0
0.04499,0.0050836,0.034606,0.00058139,0.010556,0.00022639,0,0,0.06253,-0.025935,0,0.0011772,0,0,0,0.034607,0.00057988,0.010556,0.38121,0.015248,0.030298,9.2375e-07,0.92,0.24,0
0.047493,0.0052057,0.034676,0.00062586,0.010591,9.8515e-05,0,0,0.062623,-0.025908,0,0.00051228,0,0,0,0.034677,0.00062557,0.010591,0.16577,0.015298,0.030322,9.2794e-07,0.96,0.24,0
0.05,0.005246,0.034703,0.00063356,0.010601,0.00019395,0,0,0.062665,-0.025915,0,0.0010085,0,0,0,0.034704,0.00063246,0.010601,0.32616,0.015312,0.030341,9.2993e-07,1,0.24,0
0,0,0.042336,0.018144,0.018144,0.0038954,0,0,0.062899,-8.6736e-19,0,0.020256,0,0,0,0.042948,0.017532,0.018144,8.9253,0.026208,0.025115,8.1201e-07,0,0.28,0
0.002516,0.00081024,0.041474,0.014629,0.016831,0.0039856,0,0,0.064073,-0.0057249,0,0.020725,0,0,0,0.042054,0.01405,0.016831,8.2689,0.024311,0.026722,9.4429e-07,0.04,0.28,0
0.0051258,0.0016581,0.042232,0.012009,0.016272,0.0042481,0,0,0.05006,-0.0073903,0,0.016647,0,0,0,0.042823,0.011419,0.016272,7.8973,0.023505,0.029296,1.1722e-06,0.08,0.28,0
0.0065207,0.0020451,0.042656,0.0095513,0.015662,0.003663,0,0,0.035092,-0.0079442,0,0.0095237,0,0,0,0.043057,0.0091508,0.015662,6.2391,0.022623,0.031165,1.3287e-06,0.12,0.28,0
0.0079332,0.0023504,0.042486,0.0072451,0.014919,0.0030702,0,0,0.035837,-0.0099766,0,0.0079824,0,0,0,0.042752,0.0069797,0.014919,4.9419,0.02155,0.032537,1.4203e-06,0.16,0.28,0
0.0093877,0.0025632,0.042611,0.0057845,0.014519,0.0023467,0,0,0.03652,-0.011355,0,0.0061015,0,0,0,0.04276,0.0056356,0.014519,3.6315,0.020972,0.033576,1.495e-06,0.2,0.28,0
0.010855,0.0026986,0.042321,0.0048095,0.014139,0.0017616,0,0,0.036637,-0.012129,0,0.0045801,0,0,0,0.042404,0.004727,0.014139,2.6828,0.020423,0.033963,1.5033e-06,0.24,0.28,0
0.012319,0.0027546,0.041808,0.0040975,0.013772,0.0012639,0,0,0.036448,-0.012576,0,0.0032863,0,0,0,0.041851,0.0040552,0.013772,1.9175,0.019893,0.033995,1.4759e-06,0.28,0.28,0
0.013771,0.0027391,0.041147,0.0033889,0.013361,0.00091869,0,0,0.036123,-0.012964,0,0.0023886,0,0,0,0.04117,0.0033665,0.013361,1.3929,0.019299,0.033929,1.4347e-06,0.32,0.28,0
0.015208,0.0026599,0.040382,0.0025511,0.01288,0.00070413,0,0,0.035753,-0.013428,0,0.0018307,0,0,0,0.040396,0.0025381,0.01288,1.0659,0.018604,0.033891,1.3896e-06,0.36,0.28,0
0.016631,0.0025264,0.039468,0.0014774,0.012283,0.00060095,0,0,0.035339,-0.014048,0,0.0015625,0,0,0,0.039477,0.0014679,0.012283,0.90603,0.017743,0.03392,1.339e-06,0.4,0.28,0
0.018036,0.0023489,0.038248,0.00011129,0.011508,0.00060721,0,0,0.034762,-0.014816,0,0.0015787,0,0,0,0.038258,0.00010163,0.011508,0.91195,0.016622,0.033923,1.2676e-06,0.44,0.28,0
0.019412,0.0021413,0.036838,-0.0013281,0.010653,0.00064442,0,0,0.03404,-0.015575,0,0.0016755,0,0,0,0.036849,-0.001339,0.010653,0.96706,0.015388,0.033825,1.1784e-06,0.48,0.28,0
0.020759,0.0019044,0.035864,-0.0032536,0.0097831,0.00063799,0,0,0.033905,-0.016948,0,0.0016588,0,0,0,0.035874,-0.0032641,0.0097831,0.93414,0.014131,0.034516,1.1403e-06,0.52,0.28,0
0.022124,0.0016578,0.034368,-0.0026664,0.0095106,0.00046753,0,0,0.047562,-0.021107,0,0.0021715,0,0,0,0.034377,-0.0026755,0.0095106,0.80133,0.013737,0.032786,9.5087e-07,0.56,0.28,0
0.024564,0.0015435,0.034206,0.00069239,0.010469,0.00062697,0,0,0.061715,-0.025421,0,0.0032603,0,0,0,0.034218,0.00068067,0.010469,1.0714,0.015123,0.029871,8.8972e-07,0.6,0.28,0
0.027061,0.0015872,0.034234,-0.0009843,0.0099749,0.00060499,0,0,0.063074,-0.028494,0,0.0031459,0,0,0,0.034244,-0.00099469,0.0099749,0.98385,0.014408,0.031234,9.3918e-07,0.64,0.28,0
0.02961,0.0018047,0.034098,-0.0022233,0.0095625,0.00062269,0,0,0.063793,-0.030643,0,0.003238,0,0,0,0.034109,-0.002234,0.0095625,0.98188,0.013813,0.032113,9.5974e-07,0.68,0.28,0
0.032165,0.0021866,0.034238,-0.0019391,0.0096897,0.00089077,0,0,0.063826,-0.030235,0,0.004632,0,0,0,0.03426,-0.001961,0.0096897,1.4096,0.013996,0.032027,9.6553e-07,0.72,0.28,0
0.034716,0.0026656,0.034501,-0.00082193,0.010104,0.00081244,0,0,0.063433,-0.028407,0,0.0042247,0,0,0,0.03452,-0.00084061,0.010104,1.3169,0.014594,0.031355,9.5755e-07,0.76,0.28,0
0.03724,0.0031331,0.034631,-0.00020534,0.010328,0.00066657,0,0,0.063189,-0.027386,0,0.0034662,0,0,0,0.034644,-0.00021809,0.010328,1.0958,0.014918,0.030966,9.5023e-07,0.8,0.28,0
0.039771,0.0035261,0.034974,0.00037074,0.010603,0.00042599,0,0,0.063363,-0.026605,0,0.0022152,0,0,0,0.034979,0.0003655,0.010603,0.70522,0.015316,0.030798,9.6056e-07,0.84,0.28,0
0.042309,0.0038305,0.035222,0.00062165,0.010753,0.00021818,0,0,0.063618,-0.026341,0,0.0011345,0,0,0,0.035223,0.00062028,0.010753,0.36127,0.015532,0.030812,9.7296e-07,0.88,0.28,0
0.04486,0.0040394,0.035441,0.00068947,0.010839,7.1901e-05,0,0,0.063965,-0.026389,0,0.00037389,0,0,0,0.035441,0.00068932,0.010839,0.11854,0.015657,0.030951,9.891e-07,0.92,0.28,0
0.047426,0.0041598,0.035587,0.00066922,0.010877,9.9615e-06,0,0,0.064247,-0.02654,0,5.18e-05,0,0,0,0.035587,0.00066922,0.010877,0.016345,0.015711,0.031097,1.0021e-06,0.96,0.28,0
0.05,0.0041988,0.035641,0.00065367,0.010888,0.00018756,0,0,0.064357,-0.02661,0,0.00097529,0,0,0,0.035642,0.00065266,0.010888,0.30713,0.015728,0.031159,1.0073e-06,1,0.28,0
0,0,0.042097,0.018041,0.018041,0.0026812,0,0,0.062543,-1.301e-18,0,0.013942,0,0,0,0.042392,0.017746,0.018041,6.2835,0.02606,0.024499,7.5487e-07,0,0.32,0
0.0025017,0.00055769,0.041858,0.014461,0.016896,0.0028667,0,0,0.064901,-0.0063299,0,0.014907,0,0,0,0.042154,0.014164,0.016896,5.91,0.024405,0.026729,9.4637e-07,0.04,0.32,0
0.0051921,0.0013598,0.041704,0.010493,0.015659,0.0028982,0,0,0.050673,-0.008954,0,0.011788,0,0,0,0.04198,0.010217,0.015659,5.3137,0.022619,0.029448,1.1515e-06,0.08,0.32,0
0.0065556,0.0017441,0.04308,0.0098531,0.01588,0.003995,0,0,0.03536,-0.0078349,0,0.010387,0,0,0,0.043554,0.0093795,0.01588,6.7605,0.022938,0.031432,1.3678e-06,0.12,0.32,0
0.0080209,0.0019539,0.043832,0.0081747,0.015602,0.0029218,0,0,0.036699,-0.0096555,0,0.0075966,0,0,0,0.04407,0.0079369,0.015602,4.6535,0.022536,0.032975,1.5115e-06,0.16,0.32,0
0.0094915,0.0021176,0.043351,0.0063194,0.014901,0.0025944,0,0,0.036985,-0.011156,0,0.0067454,0,0,0,0.043532,0.0061385,0.014901,3.988,0.021524,0.033873,1.5549e-06,0.2,0.32,0
0.01098,0.002217,0.043219,0.0054003,0.014586,0.0021223,0,0,0.037223,-0.011941,0,0.0055179,0,0,0,0.043338,0.0052816,0.014586,3.2019,0.021068,0.034362,1.5802e-06,0.24,0.32,0
0.012469,0.002252,0.042817,0.0044548,0.014182,0.0017482,0,0,0.037227,-0.012645,0,0.0045452,0,0,0,0.042897,0.0043753,0.014182,2.6037,0.020485,0.034674,1.5779e-06,0.28,0.32,0
0.013958,0.0022171,0.04231,0.0035241,0.01375,0.0015328,0,0,0.037128,-0.013294,0,0.0039853,0,0,0,0.04237,0.0034636,0.01375,2.2596,0.019861,0.034919,1.564e-06,0.32,0.32,0
0.01544,0.002117,0.041684,0.0026152,0.01329,0.0014763,0,0,0.036912,-0.013877,0,0.0038383,0,0,0,0.041739,0.0025595,0.01329,2.1609,0.019196,0.035069,1.536e-06,0.36,0.32,0
0.016911,0.001957,0.040866,0.0014721,0.012702,0.0015232,0,0,0.036614,-0.014598,0,0.0039603,0,0,0,0.040925,0.0014134,0.012702,2.211,0.018347,0.03525,1.4965e-06,0.4,0.32,0
0.018369,0.0017479,0.039754,-9.9841e-05,0.011896,0.0018001,0,0,0.036215,-0.015595,0,0.0046803,0,0,0,0.039835,-0.00018098,0.011896,2.581,0.017183,0.03555,1.4419e-06,0.44,0.32,0
0.019808,0.0015088,0.038068,-0.0019301,0.010841,0.0023018,0,0,0.035394,-0.016603,0,0.0059847,0,0,0,0.0382,-0.0020621,0.010841,3.2828,0.01566,0.035609,1.3345e-06,0.48,0.32,0
0.0212,0.0012361,0.035523,-0.0038673,0.0094967,0.0024548,0,0,0.033834,-0.017373,0,0.0063826,0,0,0,0.035675,-0.0040197,0.0094967,3.5524,0.013718,0.034955,1.1398e-06,0.52,0.32,0
0.022515,0.00082221,0.032991,-0.0024601,0.0091592,0.0023731,0,0,0.045531,-0.02014,0,0.0088219,0,0,0,0.033149,-0.0026183,0.0091592,3.8183,0.01323,0.031642,8.5617e-07,0.56,0.32,0
0.024843,0.00055122,0.032097,0.0011009,0.0099594,0.0013633,0,0,0.057558,-0.023032,0,0.0070894,0,0,0,0.032157,0.001041,0.0099594,2.5136,0.014386,0.027753,7.2785e-07,0.6,0.32,0
0.027119,0.00049465,0.031388,-0.00018552,0.0093607,0.00077714,0,0,0.057271,-0.02482,0,0.0040411,0,0,0,0.031407,-0.00020463,0.0093607,1.4091,0.013521,0.028079,7.0815e-07,0.64,0.32,0
0.029424,0.00059271,0.032193,-0.0013112,0.0092644,0.000141,0,0,0.059613,-0.027497,0,0.00073319,0,0,0,0.032193,-0.0013118,0.0092644,0.24112,0.013382,0.029666,7.8912e-07,0.68,0.32,0
0.031889,0.00098406,0.032777,-0.0023215,0.0091368,-0.00052625,0,0,0.061466,-0.029791,0,-0.0027365,0,0,0,0.032785,-0.0023294,0.0091368,-0.85879,0.013198,0.031014,8.5633e-07,0.72,0.32,0
0.034342,0.0015444,0.033818,-0.0014137,0.0097214,0.00024418,0,0,0.062652,-0.028951,0,0.0012697,0,0,0,0.03382,-0.0014154,0.0097214,0.39707,0.014042,0.031195,9.1584e-07,0.76,0.32,0
0.036901,0.002037,0.035221,-2.8913e-05,0.010558,0.00018319,0,0,0.064125,-0.027525,0,0.00095261,0,0,0,0.035222,-2.9865e-05,0.010558,0.29775,0.01525,0.03133,9.9286e-07,0.8,0.32,0
0.039472,0.0024616,0.035733,0.00055709,0.010887,8.2387e-05,0,0,0.064599,-0.026857,0,0.00042841,0,0,0,0.035733,0.00055689,0.010887,0.1342,0.015725,0.031316,1.0182e-06,0.84,0.32,0
0.042069,0.0027706,0.036188,0.00079765,0.011096,-0.00010697,0,0,0.065241,-0.026775,0,-0.00055623,0,0,0,0.036189,0.00079732,0.011096,-0.17317,0.016027,0.03153,1.0499e-06,0.88,0.32,0
0.044691,0.0029725,0.0365,0.00071612,0.011165,-0.00017823,0,0,0.065871,-0.027167,0,-0.0009268,0,0,0,0.036501,0.00071524,0.011165,-0.28537,0.016127,0.031872,1.0803e-06,0.92,0.32,0
0.047338,0.0030825,0.036723,0.00060476,0.011198,-0.00012553,0,0,0.066365,-0.027543,0,-0.00065277,0,0,0,0.036724,0.00060433,0.011198,-0.19913,0.016175,0.032159,1.1042e-06,0.96,0.32,0
0.05,0.0031172,0.036803,0.00056024,0.011209,0.00016696,0,0,0.066545,-0.027687,0,0.00086817,0,0,0,0.036804,0.00055947,0.011209,0.26393,0.016191,0.032266,1.113e-06,1,0.32,0
0,0,0.039521,0.016938,0.016938,0.0014608,0,0,0.058717,2.1684e-19,0,0.0075963,0,0,0,0.039615,0.016843,0.016938,3.6857,0.024465,0.022725,6.0269e-07,0,0.36,0
0.0023487,0.00030385,0.039564,0.014072,0.016091,0.0013494,0,0,0.061031,-0.005249,0,0.0070166,0,0,0,0.039635,0.014001,0.016091,3.0215,0.023242,0.024656,7.5122e-07,0.04,0.36,0
0.0048825,0.00094181,0.046637,0.011632,0.017481,0.0010394,0,0,0.052367,-0.0099811,0,0.003319,0,0,0,0.04667,0.011598,0.017481,1.5646,0.02525,0.032539,1.8525e-06,0.08,0.36,0
0.0067576,0.0014183,0.038244,0.0090294,0.014182,0.0030815,0,0,0.043,-0.0090887,0,0.011011,0,0,0,0.038566,0.008708,0.014182,5.9649,0.020485,0.027532,1.1078e-06,0.12,0.36,0
0.0081674,0.0015779,0.043426,0.0081648,0.015477,0.0033594,0,0,0.036333,-0.0095062,0,0.0087343,0,0,0,0.043743,0.0078476,0.015477,5.3939,0.022356,0.032754,1.4799e-06,0.16,0.36,0
0.0096643,0.0016707,0.044191,0.0071379,0.015399,0.0025538,0,0,0.03743,-0.010739,0,0.00664,0,0,0,0.044366,0.0069628,0.015399,3.9243,0.022242,0.03398,1.6041e-06,0.2,0.36,0
0.011162,0.0017433,0.04397,0.0058717,0.014953,0.0021482,0,0,0.037723,-0.011805,0,0.0055852,0,0,0,0.044091,0.005751,0.014953,3.217,0.021598,0.034667,1.6424e-06,0.24,0.36,0
0.012682,0.001743,0.044055,0.0046313,0.014606,0.0018594,0,0,0.038283,-0.012967,0,0.0048344,0,0,0,0.044142,0.0045438,0.014606,2.6944,0.021097,0.035649,1.717e-06,0.28,0.36,0
0.014224,0.0016756,0.043953,0.0034057,0.014207,0.001899,0,0,0.038669,-0.014042,0,0.0049375,0,0,0,0.044041,0.0033169,0.014207,2.6756,0.020522,0.036518,1.7717e-06,0.32,0.36,0
0.015776,0.0015497,0.043465,0.0023056,0.013731,0.0021525,0,0,0.038654,-0.014853,0,0.0055964,0,0,0,0.043577,0.0021934,0.013731,2.9855,0.019834,0.03699,1.7723e-06,0.36,0.36,0
0.017317,0.0013585,0.042982,0.0014891,0.013341,0.0024409,0,0,0.038532,-0.015408,0,0.0063465,0,0,0,0.043125,0.001346,0.013341,3.3552,0.019271,0.037259,1.7579e-06,0.4,0.36,0
0.018858,0.0011013,0.042208,-0.00041526,0.012538,0.0027324,0,0,0.038571,-0.016839,0,0.0071042,0,0,0,0.042382,-0.0005897,0.012538,3.653,0.01811,0.038142,1.7536e-06,0.44,0.36,0
0.020403,0.00081306,0.041457,-0.0025546,0.011671,0.0035581,0,0,0.038722,-0.018493,0,0.0092511,0,0,0,0.041743,-0.0028404,0.011671,4.5924,0.016858,0.039386,1.7629e-06,0.48,0.36,0
0.021956,0.00051451,0.041395,-0.0031684,0.011468,0.0038704,0,0,0.038905,-0.019027,0,0.010063,0,0,0,0.041728,-0.003502,0.011468,4.9271,0.016565,0.03991,1.7845e-06,0.52,0.36,0
0.023515,4.6613e-05,0.03661,0.00020026,0.011043,0.0039812,0,0,0.045385,-0.018943,0,0.014441,0,0,0,0.037042,-0.00023227,0.011043,6.2981,0.015951,0.033111,1.406e-06,0.56,0.36,0
0.025458,-0.00029909,0.040257,0.0019048,0.012649,0.0024136,0,0,0.047855,-0.019282,0,0.0087335,0,0,0,0.04041,0.0017522,0.012649,3.6949,0.01827,0.034533,1.897e-06,0.6,0.36,0
0.027343,-0.00039837,0.038601,0.00063487,0.011771,0.0014475,0,0,0.046505,-0.020058,0,0.0048626,0,0,0,0.038657,0.00057899,0.011771,2.0981,0.017002,0.033907,1.7236e-06,0.64,0.36,0
0.029179,-0.00039504,0.037365,-0.00058187,0.011035,0.00031199,0,0,0.045639,-0.021275,0,-9.2568e-05,0,0,0,0.037392,-0.0006086,0.011035,0.037406,0.015939,0.033744,1.6149e-06,0.68,0.36,0
0.030994,-0.00019672,0.040771,-0.0023459,0.011528,-0.00062531,0,0,0.053341,-0.024829,0,-0.0031007,0,0,0,0.04079,-0.0023649,0.011528,-1.0175,0.016651,0.038159,1.8034e-06,0.72,0.36,0
0.033764,0.00034947,0.036554,-0.0013122,0.010573,-0.00099305,0,0,0.067552,-0.0309,0,-0.0051639,0,0,0,0.03658,-0.0013382,0.010573,-1.5012,0.015272,0.033586,1.1531e-06,0.76,0.36,0
0.036399,0.00093114,0.036348,-0.00023982,0.010832,-0.00023598,0,0,0.06634,-0.028788,0,-0.0012271,0,0,0,0.036349,-0.00024134,0.010832,-0.36952,0.015647,0.032501,1.098e-06,0.8,0.36,0
0.039072,0.0013775,0.03719,0.00096449,0.011446,-0.00038943,0,0,0.066933,-0.027253,0,-0.0020251,0,0,0,0.037194,0.0009603,0.011446,-0.61585,0.016533,0.032294,1.1349e-06,0.84,0.36,0
0.041753,0.0016885,0.037486,0.00088307,0.011511,-0.00052198,0,0,0.067535,-0.027632,0,-0.0027143,0,0,0,0.037493,0.00087562,0.011511,-0.81685,0.016626,0.032627,1.1658e-06,0.88,0.36,0
0.044474,0.0018661,0.03787,0.00061094,0.011544,-0.00048567,0,0,0.068446,-0.028426,0,-0.0025255,0,0,0,0.037876,0.00060461,0.011544,-0.74668,0.016675,0.033183,1.212e-06,0.92,0.36,0
0.047229,0.0019563,0.038128,0.00041225,0.011562,-0.00027877,0,0,0.069071,-0.02899,0,-0.0014496,0,0,0,0.03813,0.00041019,0.011562,-0.42346,0.016701,0.033564,1.2438e-06,0.96,0.36,0
0.05,0.0019838,0.038211,0.00033872,0.011565,0.00013243,0,0,0.069279,-0.029188,0,0.00068862,0,0,0,0.038211,0.00033825,0.011565,0.20034,0.016705,0.033693,1.2544e-06,1,0.36,0
0,0,0.035694,0.015298,0.015298,0.00066233,0,0,0.053031,-4.3368e-19,0,0.0034441,0,0,0,0.035716,0.015276,0.015298,1.8579,0.022096,0.020429,4.3788e-07,0,0.4,0
0.0021212,0.00013776,0.03538,0.013498,0.014663,0.00050893,0,0,0.053864,-0.0030306,0,0.0026464,0,0,0,0.035392,0.013486,0.014663,1.3316,0.02118,0.021342,4.9412e-07,0.04,0.4,0
0.0043091,0.00058014,0.03665,0.011162,0.014343,0.00011948,0,0,0.057996,-0.0082718,0,0.00062129,0,0,0,0.03665,0.011161,0.014343,0.26858,0.020718,0.024056,6.7299e-07,0.08,0.4,0
0.0067609,0.0010359,0.043001,0.010337,0.016001,0.00060367,0,0,0.04887,-0.0099478,0,0.0011282,0,0,0,0.043033,0.010305,0.016001,0.71457,0.023113,0.030287,1.4394e-06,0.12,0.4,0
0.0084672,0.0011934,0.035468,0.007481,0.012885,0.0015261,0,0,0.040023,-0.0093171,0,0.0045239,0,0,0,0.035567,0.0073814,0.012885,2.686,0.018611,0.025879,9.3255e-07,0.16,0.4,0
0.0098573,0.0012585,0.042604,0.0068751,0.014844,0.0015227,0,0,0.036089,-0.010359,0,0.0039591,0,0,0,0.042669,0.0068103,0.014844,2.436,0.021441,0.032593,1.4207e-06,0.2,0.4,0
0.011354,0.0012726,0.044635,0.0058652,0.01515,0.0013961,0,0,0.038331,-0.01207,0,0.0036297,0,0,0,0.044685,0.005815,0.01515,2.0596,0.021884,0.035145,1.7106e-06,0.24,0.4,0
0.012924,0.0012147,0.045804,0.0045774,0.015115,0.0014593,0,0,0.039897,-0.013698,0,0.0037942,0,0,0,0.045856,0.0045258,0.015115,2.0247,0.021832,0.037184,1.9365e-06,0.28,0.4,0
0.014546,0.0010937,0.046378,0.0030686,0.014834,0.0018068,0,0,0.041007,-0.015295,0,0.0046976,0,0,0,0.046453,0.0029934,0.014834,2.3847,0.021427,0.038915,2.1088e-06,0.32,0.4,0
0.016204,0.00092874,0.046267,0.0015165,0.014335,0.0025544,0,0,0.041512,-0.016664,0,0.0066415,0,0,0,0.046413,0.0013712,0.014335,3.2564,0.020706,0.040161,2.1956e-06,0.36,0.4,0
0.017867,0.00072435,0.045243,0.00049987,0.013723,0.0033102,0,0,0.040977,-0.01719,0,0.0086066,0,0,0,0.045487,0.0002563,0.013723,4.2083,0.019822,0.040225,2.1236e-06,0.4,0.4,0
0.019482,0.00040078,0.044555,-0.00077903,0.013133,0.0043399,0,0,0.040849,-0.018085,0,0.011284,0,0,0,0.044967,-0.0011907,0.013133,5.4194,0.01897,0.040921,2.1211e-06,0.44,0.4,0
0.021135,2.9342e-05,0.044017,-0.0027195,0.012389,0.0042576,0,0,0.041116,-0.019641,0,0.01107,0,0,0,0.044401,-0.0031042,0.012389,5.1629,0.017895,0.041962,2.1251e-06,0.48,0.4,0
0.022772,-0.00028611,0.043899,-0.0024401,0.012438,0.0038751,0,0,0.0409,-0.019341,0,0.010075,0,0,0,0.044221,-0.0027619,0.012438,4.7473,0.017966,0.041525,2.0859e-06,0.52,0.4,0
0.024407,-0.00067537,0.044173,3.7852e-05,0.013263,0.0035346,0,0,0.040183,-0.017193,0,0.0091899,0,0,0,0.044455,-0.00024342,0.013263,4.5499,0.019158,0.039707,2.006e-06,0.56,0.4,0
0.025986,-0.0009913,0.044559,0.0014884,0.013814,0.0026528,0,0,0.039968,-0.016024,0,0.0068973,0,0,0,0.044722,0.0013257,0.013814,3.5113,0.019954,0.038694,1.9641e-06,0.6,0.4,0
0.027604,-0.00111,0.044757,0.00094242,0.01371,0.0023173,0,0,0.040362,-0.016598,0,0.006025,0,0,0,0.044879,0.0008202,0.01371,3.0191,0.019803,0.039236,2.0111e-06,0.64,0.4,0
0.029215,-0.0011093,0.043548,-0.00029817,0.012975,0.0015539,0,0,0.039745,-0.017255,0,0.00404,0,0,0,0.043603,-0.00035317,0.012975,2.0271,0.018742,0.039037,1.8981e-06,0.68,0.4,0
0.030784,-0.0010961,0.036971,-0.0011166,0.010756,0.00088733,0,0,0.046683,-0.021056,0,0.0020447,0,0,0,0.037012,-0.0011578,0.010756,0.96744,0.015537,0.033825,1.4306e-06,0.72,0.4,0
0.032801,-0.00092767,0.045346,-0.0013737,0.013192,-0.00016513,0,0,0.058392,-0.026201,0,-0.0015693,0,0,0,0.045359,-0.0013868,0.013192,-0.40789,0.019054,0.041428,2.4589e-06,0.76,0.4,0
0.035774,-0.00026598,0.039638,0.00031508,0.011986,-0.00076833,0,0,0.071895,-0.030344,0,-0.0039953,0,0,0,0.039653,0.00030007,0.011986,-1.1189,0.017313,0.035005,1.4038e-06,0.8,0.4,0
0.038552,0.00028137,0.03892,0.0012543,0.012052,-0.00073977,0,0,0.069855,-0.028074,0,-0.0038468,0,0,0,0.038934,0.0012398,0.012052,-1.1247,0.017409,0.033619,1.2926e-06,0.84,0.4,0
0.041363,0.00056009,0.039276,0.000799,0.012023,-0.00090645,0,0,0.07086,-0.029181,0,-0.0047135,0,0,0,0.039298,0.00077766,0.012023,-1.3488,0.017366,0.034309,1.3479e-06,0.88,0.4,0
0.044221,0.00069839,0.039609,0.00040554,0.012004,-0.00072212,0,0,0.071772,-0.030157,0,-0.003755,0,0,0,0.039622,0.00039224,0.012004,-1.0549,0.01734,0.034904,1.3969e-06,0.92,0.4,0
0.047105,0.00076328,0.039741,0.00011695,0.011957,-0.00038669,0,0,0.072238,-0.030785,0,-0.0020108,0,0,0,0.039745,0.00011317,0.011957,-0.55907,0.017272,0.035236,1.4209e-06,0.96,0.4,0
0.05,0.00078214,0.03978,1.696e-05,0.011939,9.0687e-05,0,0,0.072387,-0.030998,0,0.00047157,0,0,0,0.039781,1.6753e-05,0.011939,0.13067,0.017246,0.035344,1.4285e-06,1,0.4,0
0,0,0.033321,0.014281,0.014281,0.00029521,0,0,0.049506,-3.2526e-19,0,0.0015351,0,0,0,0.033326,0.014276,0.014281,0.88805,0.020628,0.019048,3.5494e-07,0,0.44,0
0.0019802,6.1405e-05,0.033443,0.013385,0.014049,0.00016807,0,0,0.050426,-0.0017239,0,0.00087397,0,0,0,0.033445,0.013384,0.014049,0.48006,0.020292,0.019737,3.9335e-07,0.04,0.44,0
0.0040341,0.00028006,0.033112,0.010937,0.013215,0.00022795,0,0,0.051732,-0.005921,0,0.0011853,0,0,0,0.033114,0.010935,0.013215,0.58891,0.019088,0.021132,4.6568e-07,0.08,0.44,0
0.0061188,0.00060699,0.033909,0.0091751,0.012925,-0.00084761,0,0,0.054558,-0.0097502,0,-0.0044076,0,0,0,0.033938,0.0091461,0.012925,-1.9604,0.01867,0.023135,5.7917e-07,0.12,0.44,0
0.0083987,0.00082665,0.03829,0.008776,0.01412,-0.00089376,0,0,0.044052,-0.0093089,0,-0.0039822,0,0,0,0.038329,0.0087372,0.01412,-1.9856,0.020395,0.027305,1.0168e-06,0.16,0.44,0
0.0099019,0.00084199,0.034898,0.0069744,0.012562,-0.00023828,0,0,0.038716,-0.0093208,0,-0.0014897,0,0,0,0.034911,0.0069616,0.012562,-0.91397,0.018145,0.025616,9.7115e-07,0.2,0.44,0
0.011496,0.00077766,0.03613,0.0058754,0.012602,0.00038089,0,0,0.040783,-0.011302,0,0.0014281,0,0,0,0.036135,0.0058703,0.012602,0.78925,0.018202,0.027527,1.1482e-06,0.24,0.44,0
0.013165,0.0006471,0.036803,0.0043755,0.012353,0.00087599,0,0,0.042378,-0.013648,0,0.0035813,0,0,0,0.036832,0.0043455,0.012353,1.8354,0.017844,0.029316,1.2997e-06,0.28,0.44,0
0.014886,0.000452,0.037381,0.0028037,0.012055,0.0014557,0,0,0.043897,-0.016033,0,0.0060083,0,0,0,0.037459,0.002725,0.012055,2.8563,0.017413,0.031136,1.4521e-06,0.32,0.44,0
0.016676,0.00021661,0.037957,0.00089779,0.011657,0.0022566,0,0,0.045588,-0.019071,0,0.0087644,0,0,0,0.038108,0.00074719,0.011657,3.8308,0.016837,0.033279,1.6328e-06,0.36,0.44,0
0.018533,-1.6697e-05,0.038995,0.00013182,0.011738,0.0033515,0,0,0.047245,-0.020913,0,0.012613,0,0,0,0.039294,-0.00016683,0.011738,5.199,0.016955,0.03507,1.837e-06,0.4,0.44,0
0.020456,-0.00034552,0.035871,-0.00011158,0.010728,0.0048157,0,0,0.044702,-0.018814,0,0.01723,0,0,0,0.036505,-0.00074579,0.010728,7.5724,0.015496,0.033047,1.3558e-06,0.44,0.44,0
0.021975,-0.00075824,0.040387,-0.0022629,0.011437,0.0042023,0,0,0.037635,-0.01781,0,0.010926,0,0,0,0.040797,-0.002673,0.011437,5.574,0.01652,0.038411,1.6422e-06,0.48,0.44,0
0.023467,-0.0010328,0.04022,-0.0016744,0.011564,0.0031455,0,0,0.037254,-0.01721,0,0.0081782,0,0,0,0.040455,-0.0019092,0.011564,4.2699,0.016703,0.03749,1.5754e-06,0.52,0.44,0
0.024955,-0.0013288,0.041087,0.00041423,0.01245,0.002057,0,0,0.037227,-0.015647,0,0.0053481,0,0,0,0.04119,0.00031047,0.01245,2.8878,0.017984,0.036363,1.5736e-06,0.56,0.44,0
0.026445,-0.001581,0.041895,0.001984,0.013164,0.0020228,0,0,0.037351,-0.014534,0,0.0052593,0,0,0,0.041997,0.0018817,0.013164,2.894,0.019014,0.035832,1.5973e-06,0.6,0.44,0
0.027943,-0.0017262,0.042516,0.0016611,0.013253,0.0022052,0,0,0.038042,-0.01507,0,0.0057335,0,0,0,0.042635,0.0015425,0.013253,3.0807,0.019143,0.036667,1.6886e-06,0.64,0.44,0
0.029488,-0.0017754,0.043634,0.00063244,0.01328,0.0021177,0,0,0.03946,-0.016442,0,0.0055061,0,0,0,0.043738,0.00052839,0.01328,2.8127,0.019182,0.038453,1.8745e-06,0.68,0.44,0
0.0311,-0.0018241,0.043705,-0.00061262,0.012928,0.0020323,0,0,0.04001,-0.017603,0,0.0052839,0,0,0,0.043798,-0.00070562,0.012928,2.6201,0.018673,0.039493,1.9397e-06,0.72,0.44,0
0.032689,-0.0018612,0.039338,-0.00041273,0.011678,0.0015406,0,0,0.049588,-0.021552,0,0.0055881,0,0,0,0.039397,-0.00047244,0.011678,2.2375,0.016867,0.035395,1.6508e-06,0.76,0.44,0
0.03487,-0.0014964,0.048987,-1.9698e-05,0.01469,-0.00073322,0,0,0.061912,-0.026249,0,-0.0031665,0,0,0,0.049002,-3.4224e-05,0.01469,-0.9733,0.021219,0.043582,3.0644e-06,0.8,0.44,0
0.037938,-0.00086842,0.042688,0.0020225,0.013413,-0.00039097,0,0,0.076115,-0.029616,0,-0.0020331,0,0,0,0.042692,0.0020187,0.013413,-0.55079,0.019375,0.036341,1.6728e-06,0.84,0.44,0
0.040959,-0.00064602,0.041822,0.00090276,0.012818,-0.00089559,0,0,0.075413,-0.030978,0,-0.0046571,0,0,0,0.041842,0.00088317,0.012818,-1.2532,0.018514,0.036486,1.6246e-06,0.88,0.44,0
0.043971,-0.00054642,0.041461,0.00018627,0.012494,-0.00071504,0,0,0.075315,-0.032001,0,-0.0037182,0,0,0,0.041474,0.00017388,0.012494,-0.99218,0.018047,0.036724,1.6122e-06,0.92,0.44,0
0.046984,-0.00050653,0.041319,-0.00021185,0.012332,-0.00038553,0,0,0.075366,-0.032615,0,-0.0020048,0,0,0,0.041323,-0.00021543,0.012332,-0.53181,0.017813,0.036901,1.6107e-06,0.96,0.44,0
0.05,-0.00049599,0.04128,-0.00033943,0.012282,5.0687e-05,0,0,0.075395,-0.032816,0,0.00026357,0,0,0,0.04128,-0.00033949,0.012282,0.069778,0.017741,0.036962,1.6109e-06,1,0.44,0
0,0,0.032158,0.013782,0.013782,-7.2113e-07,0,0,0.047778,2.1684e-19,0,-3.7499e-06,0,0,0,0.032158,0.013782,0.013782,-0.0022485,0.019907,0.018376,3.187e-07,0,0.48,0
0.0019111,-1.5e-07,0.032046,0.012943,0.013497,3.3497e-05,0,0,0.048229,-0.0014401,0,0.00017418,0,0,0,0.032047,0.012943,0.013497,0.10046,0.019495,0.018833,3.4206e-07,0.04,0.48,0
0.0038583,0.00010646,0.032026,0.011416,0.013033,0.00011228,0,0,0.049383,-0.0042026,0,0.00058384,0,0,0,0.032027,0.011416,0.013033,0.31212,0.018825,0.019852,3.9284e-07,0.08,0.48,0
0.0058617,0.00025586,0.031014,0.0090761,0.012027,5.9774e-05,0,0,0.049366,-0.0076723,0,0.00031082,0,0,0,0.031014,0.0090759,0.012027,0.15611,0.017372,0.020622,4.1945e-07,0.12,0.48,0
0.0078076,0.00044314,0.030218,0.007601,0.011346,-0.00070927,0,0,0.049068,-0.009736,0,-0.0036882,0,0,0,0.03024,0.0075788,0.011346,-1.7945,0.016388,0.021032,4.2663e-07,0.16,0.48,0
0.0097871,0.00051282,0.029477,0.0069874,0.010939,-0.00016866,0,0,0.048198,-0.010275,0,-0.00087703,0,0,0,0.029478,0.0069861,0.010939,-0.42965,0.015801,0.020799,4.0644e-07,0.2,0.48,0
0.011663,0.00036841,0.028126,0.0055508,0.010103,0.00022269,0,0,0.04686,-0.011836,0,0.001158,0,0,0,0.028128,0.0055486,0.010103,0.56512,0.014593,0.020682,3.8114e-07,0.24,0.48,0
0.013536,0.00012287,0.027743,0.0039353,0.0095034,0.00083638,0,0,0.047422,-0.014477,0,0.0043492,0,0,0,0.027772,0.003906,0.0095034,2.0096,0.013727,0.021618,4.0396e-07,0.28,0.48,0
0.015457,-0.00018892,0.027079,0.0016729,0.0086255,0.0013727,0,0,0.047978,-0.018077,0,0.007138,0,0,0,0.027153,0.0015989,0.0086255,3.0838,0.012459,0.022865,4.2415e-07,0.32,0.48,0
0.017374,-0.00059694,0.02736,4.3066e-05,0.008221,0.0025132,0,0,0.049762,-0.021263,0,0.013069,0,0,0,0.027589,-0.00018622,0.008221,5.2129,0.011875,0.024671,4.8016e-07,0.36,0.48,0
0.019438,-0.00094869,0.02869,0.00021345,0.0086711,0.0024143,0,0,0.05205,-0.02199,0,0.012555,0,0,0,0.028893,1.0206e-05,0.0086711,4.8119,0.012525,0.025673,5.4737e-07,0.4,0.48,0
0.021538,-0.0011012,0.02915,-0.0027563,0.007918,0.0025539,0,0,0.040726,-0.018502,0,0.009444,0,0,0,0.029353,-0.0029594,0.007918,4.5401,0.011437,0.028547,5.9745e-07,0.44,0.48,0
0.022696,-0.0013955,0.032676,-0.0025522,0.009037,0.002119,0,0,0.03073,-0.015066,0,0.0055094,0,0,0,0.032802,-0.0026792,0.009037,3.4299,0.013053,0.031313,8.6526e-07,0.48,0.48,0
0.023997,-0.0016629,0.036494,-0.00095815,0.010661,0.0014745,0,0,0.033584,-0.015105,0,0.0038337,0,0,0,0.036552,-0.0010161,0.010661,2.2511,0.015399,0.033302,1.1408e-06,0.52,0.48,0
0.025383,-0.0019271,0.038802,0.00054305,0.011804,0.0010907,0,0,0.035098,-0.014639,0,0.0028357,0,0,0,0.038833,0.00051199,0.011804,1.6316,0.01705,0.034107,1.3104e-06,0.56,0.48,0
0.026804,-0.002154,0.040141,0.0015292,0.012501,0.0011565,0,0,0.035932,-0.014264,0,0.0030068,0,0,0,0.040176,0.0014946,0.012501,1.714,0.018057,0.03452,1.4113e-06,0.6,0.48,0
0.028258,-0.0023155,0.04117,0.0015379,0.012812,0.0013898,0,0,0.036865,-0.014657,0,0.0036134,0,0,0,0.041219,0.0014892,0.012812,2.0059,0.018507,0.035451,1.526e-06,0.64,0.48,0
0.029754,-0.0024246,0.041978,0.00067694,0.012797,0.0013703,0,0,0.037936,-0.015755,0,0.0035627,0,0,0,0.042023,0.00063153,0.012797,1.8982,0.018484,0.036848,1.6572e-06,0.68,0.48,0
0.031292,-0.0025043,0.043181,0.00022182,0.013021,0.00092685,0,0,0.039209,-0.016639,0,0.0024098,0,0,0,0.043201,0.00020183,0.013021,1.2354,0.018808,0.038237,1.8211e-06,0.72,0.48,0
0.03289,-0.0025804,0.043226,-0.00045269,0.012832,0.0014836,0,0,0.039512,-0.01727,0,0.0038575,0,0,0,0.043276,-0.00050303,0.012832,1.9432,0.018535,0.038867,1.8626e-06,0.76,0.48,0
0.034453,-0.0024561,0.042612,-0.00012156,0.012747,0.00021679,0,0,0.058111,-0.022306,0,0.0017681,0,0,0,0.042626,-0.00013535,0.012747,0.39433,0.018413,0.038104,1.6879e-06,0.8,0.48,0
0.037539,-0.0020879,0.043747,0.0024793,0.013868,0.00016574,0,0,0.077686,-0.02961,0,0.00086183,0,0,0,0.043748,0.0024787,0.013868,0.2301,0.020032,0.036917,1.779e-06,0.84,0.48,0
0.040668,-0.0019182,0.0433,0.000957,0.013277,-0.00041296,0,0,0.07806,-0.032033,0,-0.0021474,0,0,0,0.043305,0.00095298,0.013277,-0.55871,0.019178,0.03773,1.7991e-06,0.88,0.48,0
0.043784,-0.0018617,0.04275,-1.7706e-05,0.01282,-0.00046562,0,0,0.077818,-0.033377,0,-0.0024212,0,0,0,0.042755,-2.2775e-05,0.01282,-0.6237,0.018517,0.038019,1.7752e-06,0.92,0.48,0
0.046894,-0.0018459,0.042478,-0.00050066,0.012593,-0.00026903,0,0,0.0777,-0.034044,0,-0.0013989,0,0,0,0.042479,-0.00050234,0.012593,-0.35863,0.01819,0.038158,1.7619e-06,0.96,0.48,0
0.05,-0.0018432,0.042391,-0.00064816,0.012523,1.3107e-05,0,0,0.077657,-0.034245,0,6.8156e-05,0,0,0,0.042391,-0.00064817,0.012523,0.017448,0.018089,0.038197,1.7572e-06,1,0.48,0
0,0,0.031764,0.013613,0.013613,-0.00025866,0,0,0.047193,1.0842e-19,0,-0.001345,0,0,0,0.031768,0.01361,0.013613,-0.81625,0.019664,0.018157,3.0742e-07,0,0.52,0
0.0018877,-5.3801e-05,0.031709,0.012693,0.013321,-0.00015291,0,0,0.047809,-0.0016309,0,-0.00079515,0,0,0,0.03171,0.012692,0.013321,-0.4607,0.019241,0.018712,3.352e-07,0.04,0.52,0
0.0038248,-5.6148e-05,0.031723,0.011211,0.01288,0.00015673,0,0,0.048991,-0.0043398,0,0.000815,0,0,0,0.031724,0.01121,0.01288,0.43776,0.018605,0.019732,3.8507e-07,0.08,0.52,0
0.005807,-6.7927e-06,0.031764,0.0096627,0.012428,0.00041272,0,0,0.050273,-0.0071897,0,0.0021461,0,0,0,0.031772,0.009655,0.012428,1.0695,0.017952,0.020869,4.3913e-07,0.12,0.52,0
0.0078466,4.7769e-05,0.031473,0.0077413,0.011764,0.00066792,0,0,0.051243,-0.01046,0,0.0034732,0,0,0,0.031492,0.0077225,0.011764,1.6109,0.016993,0.022028,4.8728e-07,0.16,0.52,0
0.0099064,1.9975e-05,0.031032,0.0061921,0.011167,0.0005979,0,0,0.051649,-0.012936,0,0.0031091,0,0,0,0.031047,0.0061777,0.011167,1.378,0.01613,0.022787,5.1088e-07,0.2,0.52,0
0.011978,-0.00016922,0.030875,0.005322,0.010859,0.0006793,0,0,0.052041,-0.014397,0,0.0035324,0,0,0,0.030893,0.0053039,0.010859,1.5217,0.015685,0.023313,5.2832e-07,0.24,0.52,0
0.01407,-0.00051106,0.030219,0.003227,0.010034,0.00088039,0,0,0.052482,-0.017698,0,0.004578,0,0,0,0.030248,0.0031983,0.010034,1.8661,0.014493,0.024362,5.5022e-07,0.28,0.52,0
0.016177,-0.00099413,0.030909,0.0014209,0.0096991,0.0018395,0,0,0.055147,-0.021523,0,0.0095656,0,0,0,0.031024,0.0013066,0.0096991,3.5558,0.01401,0.026536,6.46e-07,0.32,0.52,0
0.018482,-0.0014844,0.035497,-0.0001426,0.010606,0.0016542,0,0,0.04521,-0.019139,0,0.0071192,0,0,0,0.035596,-0.00024178,0.010606,2.9718,0.01532,0.031834,1.1539e-06,0.36,0.52,0
0.020042,-0.0017759,0.032867,0.00032793,0.0099586,0.0010722,0,0,0.039709,-0.01769,0,0.0054945,0,0,0,0.03296,0.00023529,0.0099586,2.5838,0.014385,0.02913,1.0671e-06,0.4,0.52,0
0.021658,-0.0018257,0.02997,-0.0014253,0.0085635,-0.00039304,0,0,0.037931,-0.017513,0,-0.00058288,0,0,0,0.029989,-0.0014435,0.0085635,-0.36862,0.01237,0.027814,7.8495e-07,0.44,0.52,0
0.022977,-0.0019635,0.035805,-0.0012894,0.010355,-0.00040609,0,0,0.033085,-0.015137,0,-0.0010558,0,0,0,0.035809,-0.0012939,0.010355,-0.62715,0.014957,0.032865,1.0813e-06,0.48,0.52,0
0.024305,-0.0022412,0.036884,-0.00034288,0.010962,-0.00042687,0,0,0.033698,-0.014697,0,-0.0011098,0,0,0,0.036889,-0.00034777,0.010962,-0.65688,0.015834,0.033065,1.1509e-06,0.52,0.52,0
0.025673,-0.0024999,0.038261,0.00053042,0.011637,-8.4212e-05,0,0,0.03461,-0.014439,0,-0.00021895,0,0,0,0.038261,0.00053023,0.011637,-0.12788,0.016809,0.033584,1.2523e-06,0.56,0.52,0
0.027074,-0.0027221,0.039367,0.0011558,0.012157,0.00025514,0,0,0.035373,-0.014301,0,0.00066337,0,0,0,0.039368,0.0011541,0.012157,0.38255,0.01756,0.034072,1.3403e-06,0.6,0.52,0
0.028503,-0.0028987,0.040204,0.0012427,0.012434,0.0005322,0,0,0.036101,-0.014549,0,0.0013837,0,0,0,0.040212,0.0012355,0.012434,0.78244,0.017961,0.034757,1.426e-06,0.64,0.52,0
0.029962,-0.0030359,0.040844,0.00089256,0.012521,0.00056785,0,0,0.03682,-0.015117,0,0.0014764,0,0,0,0.040852,0.00088449,0.012521,0.81416,0.018086,0.035605,1.511e-06,0.68,0.52,0
0.031449,-0.0031552,0.041167,0.00030174,0.012441,0.00046593,0,0,0.037344,-0.01578,0,0.0012114,0,0,0,0.041172,0.00029643,0.012441,0.65315,0.01797,0.036358,1.5721e-06,0.72,0.52,0
0.032949,-0.0032428,0.04207,-0.00024132,0.012549,0.00030281,0,0,0.038378,-0.016627,0,0.0007873,0,0,0,0.042073,-0.00024349,0.012549,0.41001,0.018126,0.03759,1.7011e-06,0.76,0.52,0
0.034519,-0.0032809,0.042378,0.0013095,0.013106,0.00056424,0,0,0.05649,-0.020448,0,0.0022965,0,0,0,0.042386,0.0013013,0.013106,0.81033,0.018931,0.036722,1.6212e-06,0.8,0.52,0
0.037469,-0.0032373,0.04279,0.0030125,0.013741,0.00021379,0,0,0.075528,-0.027893,0,0.0011117,0,0,0,0.042791,0.0030113,0.013741,0.30793,0.019848,0.035647,1.6356e-06,0.84,0.52,0
0.040561,-0.0032086,0.043206,0.00087865,0.013225,-5.7385e-05,0,0,0.07795,-0.032102,0,-0.0002984,0,0,0,0.043206,0.00087858,0.013225,-0.077677,0.019103,0.037702,1.7903e-06,0.88,0.52,0
0.043705,-0.0032166,0.043152,-0.00015826,0.012898,-0.00014541,0,0,0.078659,-0.033946,0,-0.00075613,0,0,0,0.043152,-0.00015875,0.012898,-0.19237,0.01863,0.038481,1.8313e-06,0.92,0.52,0
0.046854,-0.00323,0.042948,-0.0006747,0.012682,-9.4291e-05,0,0,0.078691,-0.034727,0,-0.00049031,0,0,0,0.042948,-0.0006749,0.012682,-0.12385,0.018318,0.038713,1.8282e-06,0.96,0.52,0
0.05,-0.0032356,0.042861,-0.00083114,0.012609,-2.6641e-05,0,0,0.078656,-0.034945,0,-0.00013853,0,0,0,0.042861,-0.00083116,0.012609,-0.034935,0.018213,0.038761,1.8239e-06,1,0.52,0
0,0,0.032032,0.013728,0.013728,-0.000628,0,0,0.047591,-5.421e-19,0,-0.0032656,0,0,0,0.032054,0.013707,0.013728,-1.9627,0.01983,0.018337,3.1665e-07,0,0.56,0
0.0019037,-0.00013062,0.031935,0.012391,0.013298,-0.00045953,0,0,0.048456,-0.0023581,0,-0.0023895,0,0,0,0.031946,0.01238,0.013298,-1.3462,0.019208,0.019123,3.5639e-07,0.04,0.56,0
0.0038765,-0.00024073,0.032336,0.010935,0.012981,-0.00010025,0,0,0.050323,-0.005321,0,-0.00052133,0,0,0,0.032337,0.010934,0.012981,-0.26839,0.018751,0.020456,4.2482e-07,0.08,0.56,0
0.0059295,-0.00031932,0.032696,0.009268,0.012589,0.00035575,0,0,0.052277,-0.0086348,0,0.0018499,0,0,0,0.032701,0.0092626,0.012589,0.86978,0.018184,0.021965,5.0244e-07,0.12,0.56,0
0.0080587,-0.00039365,0.032946,0.007589,0.01216,0.00071448,0,0,0.054042,-0.011886,0,0.0037153,0,0,0,0.032966,0.0075689,0.01216,1.6127,0.017565,0.023441,5.769e-07,0.16,0.56,0
0.010253,-0.00052202,0.032991,0.0061712,0.011749,0.00092689,0,0,0.05523,-0.014501,0,0.0048198,0,0,0,0.033023,0.0061392,0.011749,1.977,0.01697,0.024564,6.2948e-07,0.2,0.56,0
0.012477,-0.00078331,0.032928,0.0051294,0.011417,0.00087133,0,0,0.055928,-0.016348,0,0.0045309,0,0,0,0.032955,0.0051021,0.011417,1.7935,0.016491,0.025294,6.5973e-07,0.24,0.56,0
0.014727,-0.0012929,0.033863,0.0033933,0.011177,0.0011002,0,0,0.058984,-0.020237,0,0.0057211,0,0,0,0.033903,0.0033536,0.011177,2.0653,0.016144,0.027486,7.8235e-07,0.28,0.56,0
0.017196,-0.0019108,0.039062,0.0013576,0.012126,0.0007518,0,0,0.048836,-0.019272,0,0.0036656,0,0,0,0.039092,0.0013278,0.012126,1.3968,0.017515,0.03369,1.4753e-06,0.32,0.56,0
0.018892,-0.002189,0.031609,9.5723e-05,0.0095113,-0.00014746,0,0,0.039325,-0.016644,0,0.00044086,0,0,0,0.031628,7.6224e-05,0.0095113,0.1204,0.013739,0.028051,8.6302e-07,0.36,0.56,0
0.020219,-0.0023639,0.037033,6.6143e-05,0.01113,-0.00031247,0,0,0.033675,-0.014383,0,-0.00081243,0,0,0,0.037036,6.3502e-05,0.01113,-0.48426,0.016077,0.032868,1.1511e-06,0.4,0.56,0
0.021586,-0.0024784,0.038123,-0.001053,0.011121,-0.001121,0,0,0.035103,-0.015826,0,-0.0029147,0,0,0,0.038156,-0.0010851,0.011121,-1.6377,0.016064,0.034783,1.2983e-06,0.44,0.56,0
0.023027,-0.0026065,0.03873,-0.0012524,0.011243,-0.0012201,0,0,0.035732,-0.016244,0,-0.0031724,0,0,0,0.038767,-0.0012896,0.011243,-1.7463,0.01624,0.03549,1.3682e-06,0.48,0.56,0
0.024444,-0.0028386,0.03859,-0.00031182,0.011483,-0.0012741,0,0,0.035238,-0.015334,0,-0.0033128,0,0,0,0.038631,-0.00035351,0.011483,-1.874,0.016587,0.034619,1.3215e-06,0.52,0.56,0
0.025846,-0.0030822,0.038756,0.00029881,0.011716,-0.00090933,0,0,0.035151,-0.014843,0,-0.0023643,0,0,0,0.038777,0.00027732,0.011716,-1.3538,0.016924,0.034245,1.3135e-06,0.56,0.56,0
0.027256,-0.0032981,0.039301,0.00081497,0.012035,-0.00048983,0,0,0.035446,-0.014586,0,-0.0012736,0,0,0,0.039308,0.00080874,0.012035,-0.72907,0.017384,0.034293,1.3477e-06,0.6,0.56,0
0.028682,-0.0034795,0.039899,0.0010516,0.012285,-0.00018098,0,0,0.035898,-0.014604,0,-0.00047055,0,0,0,0.0399,0.0010507,0.012285,-0.26692,0.017746,0.034627,1.4003e-06,0.64,0.56,0
0.030128,-0.003634,0.040426,0.0009239,0.012405,1.0612e-05,0,0,0.036427,-0.014925,0,2.759e-05,0,0,0,0.040426,0.0009239,0.012405,0.015392,0.017918,0.035195,1.4622e-06,0.68,0.56,0
0.031596,-0.0037667,0.040726,0.00044953,0.012353,2.7996e-05,0,0,0.036885,-0.015474,0,7.279e-05,0,0,0,0.040726,0.00044951,0.012353,0.039826,0.017843,0.035839,1.5151e-06,0.72,0.56,0
0.033079,-0.0039105,0.041633,-0.00014298,0.012447,-2.2458e-05,0,0,0.037942,-0.016367,0,-5.8391e-05,0,0,0,0.041633,-0.00014299,0.012447,-0.030801,0.017979,0.037119,1.6442e-06,0.76,0.56,0
0.034632,-0.0040919,0.041994,0.0013588,0.013006,-0.00045242,0,0,0.055961,-0.020188,0,-0.0017601,0,0,0,0.041999,0.0013537,0.013006,-0.64609,0.018786,0.036335,1.5741e-06,0.8,0.56,0
0.037556,-0.0043194,0.042455,0.0030331,0.013646,-0.00016471,0,0,0.074902,-0.027594,0,-0.0008565,0,0,0,0.042455,0.0030324,0.013646,-0.23939,0.019711,0.035333,1.5953e-06,0.84,0.56,0
0.040624,-0.0044863,0.04289,0.00089377,0.013135,7.7459e-05,0,0,0.077363,-0.031828,0,0.00040279,0,0,0,0.04289,0.00089363,0.013135,0.10568,0.018973,0.037409,1.7503e-06,0.88,0.56,0
0.043745,-0.0045774,0.042857,-0.0001568,0.01281,0.00014379,0,0,0.078122,-0.033714,0,0.00074772,0,0,0,0.042857,-0.00015729,0.01281,0.19153,0.018503,0.038218,1.794e-06,0.92,0.56,0
0.046873,-0.0046241,0.042669,-0.00068013,0.012597,8.8118e-05,0,0,0.078188,-0.03452,0,0.00045821,0,0,0,0.042669,-0.00068031,0.012597,0.11647,0.018195,0.03847,1.7932e-06,0.96,0.56,0
0.05,-0.0046387,0.042588,-0.00083892,0.012525,-7.0427e-05,0,0,0.078164,-0.034745,0,-0.00036622,0,0,0,0.042588,-0.00083904,0.012525,-0.092919,0.018091,0.038524,1.7898e-06,1,0.56,0
0,0,0.032598,0.013971,0.013971,-0.0011656,0,0,0.048432,2.1684e-19,0,-0.0060612,0,0,0,0.032671,0.013898,0.013971,-3.5667,0.02018,0.018737,3.3782e-07,0,0.6,0
0.0019373,-0.00024245,0.032471,0.012117,0.013376,-0.000993,0,0,0.049647,-0.0032756,0,-0.0051636,0,0,0,0.03252,0.012068,0.013376,-2.7863,0.019321,0.01983,3.946e-07,0.04,0.6,0
0.0039717,-0.00048183,0.033137,0.010483,0.013086,-0.00063962,0,0,0.052133,-0.0067678,0,-0.003326,0,0,0,0.033155,0.010465,0.013086,-1.616,0.018902,0.0215,4.8494e-07,0.08,0.6,0
0.0061079,-0.00069757,0.03383,0.0088265,0.012797,-0.00017209,0,0,0.054685,-0.010323,0,-0.00089488,0,0,0,0.033831,0.0088253,0.012797,-0.39433,0.018484,0.023275,5.8455e-07,0.12,0.6,0
0.0083466,-0.00090308,0.034547,0.007312,0.012558,0.00026365,0,0,0.057172,-0.013639,0,0.001371,0,0,0,0.03455,0.0073095,0.012558,0.55458,0.018139,0.025032,6.8773e-07,0.16,0.6,0
0.010682,-0.0011401,0.035375,0.0061745,0.012465,0.00054591,0,0,0.059567,-0.016355,0,0.0028387,0,0,0,0.035386,0.0061643,0.012465,1.0707,0.018005,0.026636,7.9052e-07,0.2,0.6,0
0.013112,-0.0014771,0.036555,0.0055947,0.012645,0.00032328,0,0,0.062165,-0.01833,0,0.0016811,0,0,0,0.036558,0.0055914,0.012645,0.5982,0.018265,0.028112,9.0338e-07,0.24,0.6,0
0.015655,-0.0021301,0.042486,0.0032153,0.013711,0.00083481,0,0,0.051835,-0.018583,0,0.0034623,0,0,0,0.042508,0.003194,0.013711,1.3512,0.019804,0.035254,1.8412e-06,0.28,0.6,0
0.017493,-0.0026088,0.034179,0.0015374,0.010715,-0.0011084,0,0,0.041994,-0.016293,0,-0.0040134,0,0,0,0.034216,0.0014998,0.010715,-1.9625,0.015477,0.02922,1.0219e-06,0.32,0.6,0
0.018856,-0.0027771,0.038332,0.00057043,0.011671,-0.0012594,0,0,0.034659,-0.01443,0,-0.0032744,0,0,0,0.038374,0.00052848,0.011671,-1.9081,0.016858,0.033686,1.2636e-06,0.36,0.6,0
0.020266,-0.0029265,0.038968,0.00079935,0.01193,-0.0009402,0,0,0.03515,-0.01447,0,-0.0024445,0,0,0,0.038992,0.0007762,0.01193,-1.4102,0.017233,0.034038,1.3164e-06,0.4,0.6,0
0.021668,-0.0030918,0.038601,-0.00023596,0.011509,-0.00088633,0,0,0.035219,-0.015269,0,-0.0023044,0,0,0,0.038621,-0.00025618,0.011509,-1.3067,0.016625,0.034532,1.317e-06,0.44,0.6,0
0.023084,-0.003263,0.038648,-0.0011096,0.011262,-0.0012381,0,0,0.035602,-0.016082,0,-0.003219,0,0,0,0.038686,-0.0011481,0.011262,-1.7819,0.016267,0.035305,1.3549e-06,0.48,0.6,0
0.024516,-0.0034679,0.039017,-0.00061792,0.01152,-0.0014685,0,0,0.035746,-0.015779,0,-0.0038181,0,0,0,0.039071,-0.00067225,0.01152,-2.119,0.01664,0.035265,1.3785e-06,0.52,0.6,0
0.025944,-0.0036874,0.039154,-9.5336e-05,0.011718,-0.0013307,0,0,0.035667,-0.015357,0,-0.0034597,0,0,0,0.039199,-0.0001404,0.011718,-1.9395,0.016925,0.034953,1.3726e-06,0.56,0.6,0
0.027369,-0.0038889,0.039455,0.00046619,0.011976,-0.001,0,0,0.035722,-0.014963,0,-0.0026,0,0,0,0.039481,0.00044056,0.011976,-1.4683,0.017299,0.03474,1.3801e-06,0.6,0.6,0
0.028801,-0.004067,0.040018,0.00099594,0.012304,-0.00077906,0,0,0.036028,-0.014701,0,-0.0020256,0,0,0,0.040034,0.00098039,0.012304,-1.1433,0.017773,0.034802,1.4174e-06,0.64,0.6,0
0.030251,-0.0042299,0.040633,0.00090967,0.012463,-0.00070128,0,0,0.036621,-0.015019,0,-0.0018233,0,0,0,0.040645,0.0008973,0.012463,-1.0111,0.018002,0.035411,1.4875e-06,0.68,0.6,0
0.031731,-0.0043931,0.041756,0.00067963,0.012731,-0.00052891,0,0,0.037733,-0.015666,0,-0.0013752,0,0,0,0.041763,0.00067283,0.012731,-0.73759,0.018389,0.036583,1.6245e-06,0.72,0.6,0
0.03327,-0.0045521,0.041908,-0.00016164,0.012524,-0.0013101,0,0,0.038199,-0.016491,0,-0.0034064,0,0,0,0.041948,-0.0002024,0.012524,-1.782,0.01809,0.037446,1.6843e-06,0.76,0.6,0
0.034787,-0.0048959,0.041509,3.7565e-05,0.012464,-0.00022406,0,0,0.056556,-0.021539,0,-0.0016314,0,0,0,0.041519,2.7415e-05,0.012464,-0.39622,0.018003,0.036987,1.5539e-06,0.8,0.6,0
0.037795,-0.0054448,0.042736,0.0025311,0.01358,-0.00018335,0,0,0.075805,-0.028727,0,-0.00095341,0,0,0,0.042737,0.0025303,0.01358,-0.26128,0.019616,0.035978,1.6532e-06,0.84,0.6,0
0.040851,-0.0057548,0.042369,0.00097975,0.013005,0.00037933,0,0,0.076346,-0.031264,0,0.0019725,0,0,0,0.042372,0.00097628,0.013005,0.52505,0.018784,0.036883,1.6833e-06,0.88,0.6,0
0.043902,-0.0059137,0.04189,-2.1665e-05,0.01256,0.00043115,0,0,0.076256,-0.032713,0,0.002242,0,0,0,0.041894,-2.61e-05,0.01256,0.58932,0.018143,0.037257,1.6703e-06,0.92,0.6,0
0.046952,-0.0059916,0.041656,-0.00052259,0.01234,0.00024853,0,0,0.076222,-0.033443,0,0.0012924,0,0,0,0.041658,-0.00052406,0.01234,0.33759,0.017825,0.037445,1.663e-06,0.96,0.6,0
0.05,-0.0060152,0.041582,-0.00067616,0.012272,-0.00011329,0,0,0.076206,-0.033664,0,-0.00058912,0,0,0,0.041582,-0.00067647,0.012272,-0.15361,0.017726,0.0375,1.6602e-06,1,0.6,0
0,0,0.033189,0.014224,0.014224,-0.0018879,0,0,0.04931,1.0842e-18,0,-0.0098169,0,0,0,0.033375,0.014038,0.014224,-5.6298,0.020546,0.019245,3.6597e-07,0,0.64,0
0.0019724,-0.00039267,0.033006,0.01186,0.01346,-0.0017378,0,0,0.05082,-0.0041598,0,-0.0090368,0,0,0,0.033147,0.011718,0.01346,-4.667,0.019442,0.020614,4.3908e-07,0.04,0.64,0
0.0040656,-0.00078215,0.033884,0.010044,0.013179,-0.0014246,0,0,0.053835,-0.0081487,0,-0.0074078,0,0,0,0.033969,0.0099597,0.013179,-3.4076,0.019036,0.022573,5.5043e-07,0.08,0.64,0
0.0062791,-0.0011451,0.034798,0.0083533,0.012945,-0.00098774,0,0,0.056817,-0.011939,0,-0.0051362,0,0,0,0.034835,0.0083164,0.012945,-2.1361,0.018699,0.024534,6.6832e-07,0.12,0.64,0
0.0086109,-0.0014847,0.035767,0.0069368,0.012811,-0.00057487,0,0,0.059685,-0.015273,0,-0.0029893,0,0,0,0.035778,0.0069253,0.012811,-1.1419,0.018505,0.026407,7.8965e-07,0.16,0.64,0
0.011054,-0.0018304,0.036865,0.0060401,0.012871,-0.0003748,0,0,0.062382,-0.017761,0,-0.0019489,0,0,0,0.036869,0.0060356,0.012871,-0.69653,0.018592,0.028047,9.1028e-07,0.2,0.64,0
0.013602,-0.0022497,0.037854,0.0057944,0.013095,-0.00063741,0,0,0.064375,-0.018981,0,-0.0033145,0,0,0,0.037867,0.0057817,0.013095,-1.1385,0.018914,0.029126,1.0044e-06,0.24,0.64,0
0.016204,-0.0028265,0.037404,0.0026752,0.012024,-0.00047641,0,0,0.04926,-0.016204,0,-0.0026317,0,0,0,0.037422,0.0026567,0.012024,-0.89156,0.017368,0.031228,1.0636e-06,0.28,0.64,0
0.017542,-0.003168,0.038348,0.0015482,0.011969,-0.0013698,0,0,0.034293,-0.013547,0,-0.0035615,0,0,0,0.038399,0.0014973,0.011969,-2.1288,0.017288,0.032939,1.2295e-06,0.32,0.64,0
0.018947,-0.0033434,0.038887,0.0011217,0.012002,-0.00066945,0,0,0.03495,-0.014145,0,-0.0017406,0,0,0,0.038899,0.0011098,0.012002,-1.0152,0.017337,0.03369,1.2941e-06,0.36,0.64,0
0.020338,-0.0035215,0.038489,0.00037255,0.011659,-0.00088878,0,0,0.03488,-0.014672,0,-0.0023108,0,0,0,0.03851,0.00035184,0.011659,-1.335,0.01684,0.033948,1.2837e-06,0.4,0.64,0
0.021738,-0.0036999,0.038549,-3.91e-05,0.011553,-0.0010708,0,0,0.035095,-0.01507,0,-0.002784,0,0,0,0.038579,-6.879e-05,0.011553,-1.5882,0.016688,0.034345,1.306e-06,0.44,0.64,0
0.023146,-0.003893,0.0386,-0.00048706,0.011434,-0.0013629,0,0,0.035316,-0.015497,0,-0.0035435,0,0,0,0.038647,-0.00053452,0.011434,-1.9945,0.016516,0.034778,1.3296e-06,0.48,0.64,0
0.024563,-0.0041009,0.038852,-0.00052432,0.011498,-0.0016425,0,0,0.03556,-0.015629,0,-0.0042704,0,0,0,0.03892,-0.00059271,0.011498,-2.3844,0.016609,0.035068,1.3599e-06,0.52,0.64,0
0.025991,-0.0043108,0.039212,-0.00033014,0.011664,-0.0016705,0,0,0.035811,-0.015593,0,-0.0043434,0,0,0,0.039282,-0.00040059,0.011664,-2.4148,0.016849,0.035235,1.3909e-06,0.56,0.64,0
0.027428,-0.0044951,0.039386,-9.7337e-05,0.011787,-0.0014337,0,0,0.035879,-0.015449,0,-0.0037276,0,0,0,0.039438,-0.00014933,0.011787,-2.0768,0.017025,0.035173,1.3981e-06,0.6,0.64,0
0.028861,-0.0046555,0.040042,0.0011114,0.012346,-0.00128,0,0,0.036005,-0.014605,0,-0.003328,0,0,0,0.040084,0.0010694,0.012346,-1.8811,0.017833,0.034776,1.4191e-06,0.64,0.64,0
0.030308,-0.0048355,0.041096,0.0014203,0.012755,-0.0015609,0,0,0.036843,-0.014735,0,-0.0040584,0,0,0,0.041157,0.001359,0.012755,-2.2495,0.018424,0.0355,1.5248e-06,0.68,0.64,0
0.031808,-0.00502,0.041278,0.00013152,0.012423,-0.0019116,0,0,0.037512,-0.015979,0,-0.0049702,0,0,0,0.041367,4.2903e-05,0.012423,-2.6542,0.017944,0.036733,1.6052e-06,0.72,0.64,0
0.033309,-0.0052298,0.037574,-7.0979e-05,0.011251,-0.0016411,0,0,0.047248,-0.020161,0,-0.0059742,0,0,0,0.037645,-0.00014254,0.011251,-2.5208,0.016251,0.033574,1.4216e-06,0.76,0.64,0
0.035394,-0.0058151,0.04691,5.2492e-05,0.014089,0.00050509,0,0,0.05928,-0.025005,0,0.0023563,0,0,0,0.04692,4.317e-05,0.014089,0.74195,0.020351,0.04167,2.6801e-06,0.8,0.64,0
0.038339,-0.0066176,0.041105,0.0020537,0.012948,0.00025948,0,0,0.073208,-0.028324,0,0.0013493,0,0,0,0.041106,0.0020519,0.012948,0.38068,0.018702,0.034906,1.4884e-06,0.84,0.64,0
0.04125,-0.0069875,0.040378,0.00090691,0.012386,0.00077774,0,0,0.072781,-0.029845,0,0.0040443,0,0,0,0.040394,0.00089159,0.012386,1.1284,0.01789,0.035192,1.46e-06,0.88,0.64,0
0.044161,-0.0071945,0.040095,0.0001582,0.012076,0.0006353,0,0,0.072849,-0.030986,0,0.0033035,0,0,0,0.040105,0.00014809,0.012076,0.91113,0.017443,0.035528,1.4585e-06,0.92,0.64,0
0.047078,-0.0072995,0.03999,-0.00026314,0.011918,0.00034529,0,0,0.072987,-0.031671,0,0.0017955,0,0,0,0.039993,-0.0002661,0.011918,0.49143,0.017215,0.035759,1.4624e-06,0.96,0.64,0
0.05,-0.0073319,0.039962,-0.00039876,0.011869,-0.00015557,0,0,0.073042,-0.031896,0,-0.00080896,0,0,0,0.039963,-0.00039936,0.011869,-0.22084,0.017144,0.035839,1.4642e-06,1,0.64,0
0,0,0.033595,0.014398,0.014398,-0.0027655,0,0,0.049912,-1.301e-18,0,-0.014381,0,0,0,0.033985,0.014007,0.014398,-8.0364,0.020797,0.019786,3.9728e-07,0,0.68,0
0.0019965,-0.00057523,0.033363,0.011635,0.013499,-0.0026502,0,0,0.051645,-0.0048475,0,-0.013781,0,0,0,0.033681,0.011316,0.013499,-6.8547,0.019499,0.021357,4.8276e-07,0.04,0.68,0
0.0041316,-0.0011337,0.034373,0.0096415,0.013204,-0.0023705,0,0,0.055039,-0.0092637,0,-0.012327,0,0,0,0.034599,0.0094163,0.013204,-5.4259,0.019073,0.023518,6.1006e-07,0.08,0.68,0
0.0063996,-0.0016527,0.035392,0.0078836,0.012983,-0.0019712,0,0,0.058264,-0.013258,0,-0.01025,0,0,0,0.035532,0.007743,0.012983,-4.0779,0.018753,0.025575,7.3908e-07,0.12,0.68,0
0.0087927,-0.0021249,0.036376,0.0064936,0.012861,-0.0015578,0,0,0.061139,-0.016555,0,-0.0081008,0,0,0,0.036457,0.0064126,0.012861,-2.9762,0.018577,0.027395,8.6199e-07,0.16,0.68,0
0.011291,-0.002561,0.037125,0.0056949,0.012846,-0.0012746,0,0,0.063126,-0.018593,0,-0.0066281,0,0,0,0.037177,0.0056432,0.012846,-2.3185,0.018555,0.02862,9.5184e-07,0.2,0.68,0
0.013843,-0.0029955,0.037392,0.0059683,0.013008,-0.0012106,0,0,0.063398,-0.018304,0,-0.0062949,0,0,0,0.037439,0.0059217,0.013008,-2.2029,0.01879,0.028639,9.6196e-07,0.24,0.68,0
0.016363,-0.0034264,0.037614,0.0036994,0.012394,-0.0012859,0,0,0.048535,-0.015071,0,-0.005144,0,0,0,0.037664,0.0036489,0.012394,-2.216,0.017902,0.03065,1.06e-06,0.28,0.68,0
0.017726,-0.0036926,0.037856,0.0015588,0.011824,-0.0008265,0,0,0.033841,-0.013345,0,-0.0021489,0,0,0,0.037875,0.00154,0.011824,-1.3037,0.01708,0.03244,1.1775e-06,0.32,0.68,0
0.01907,-0.0039087,0.037641,0.0008976,0.011562,-0.00077851,0,0,0.033904,-0.013863,0,-0.0020241,0,0,0,0.037658,0.00088111,0.011562,-1.2132,0.0167,0.032769,1.1812e-06,0.36,0.68,0
0.020438,-0.0041003,0.037945,0.00050984,0.011536,-0.00085009,0,0,0.034331,-0.014335,0,-0.0022102,0,0,0,0.037964,0.00049055,0.011536,-1.3002,0.016664,0.033352,1.2247e-06,0.4,0.68,0
0.021816,-0.0042974,0.03803,0.00016419,0.011458,-0.0011179,0,0,0.034543,-0.014682,0,-0.0029064,0,0,0,0.038063,0.00013122,0.011458,-1.6895,0.016551,0.033726,1.2472e-06,0.44,0.68,0
0.023201,-0.0045028,0.038087,-8.8745e-05,0.011399,-0.0014595,0,0,0.034693,-0.014934,0,-0.0037947,0,0,0,0.038142,-0.00014446,0.011399,-2.1863,0.016466,0.034017,1.2648e-06,0.48,0.68,0
0.024592,-0.0047182,0.038209,-0.00023361,0.011392,-0.0018291,0,0,0.034861,-0.015114,0,-0.0047557,0,0,0,0.038295,-0.00032044,0.011392,-2.718,0.016456,0.034294,1.2863e-06,0.52,0.68,0
0.02599,-0.0049348,0.038729,-0.00013838,0.011577,-0.0020879,0,0,0.035298,-0.01523,0,-0.0054284,0,0,0,0.038841,-0.00025021,0.011577,-3.066,0.016723,0.034723,1.3393e-06,0.56,0.68,0
0.027416,-0.0051249,0.039561,-0.00016371,0.011819,-0.0020806,0,0,0.036065,-0.015578,0,-0.0054097,0,0,0,0.03967,-0.00027239,0.011819,-2.99,0.017072,0.035477,1.4276e-06,0.6,0.68,0
0.028875,-0.0052354,0.03986,0.00084165,0.012211,-0.0023532,0,0,0.035944,-0.014779,0,-0.0061182,0,0,0,0.040001,0.00070025,0.012211,-3.4388,0.017637,0.034996,1.4253e-06,0.64,0.68,0
0.030291,-0.0054087,0.039452,0.00063698,0.012027,-0.0017588,0,0,0.035653,-0.014807,0,-0.004573,0,0,0,0.039532,0.00055744,0.012027,-2.5892,0.017372,0.034692,1.381e-06,0.68,0.68,0
0.031728,-0.0056714,0.034632,-0.00046426,0.01025,-0.001358,0,0,0.043532,-0.01903,0,-0.0039319,0,0,0,0.034699,-0.00053155,0.01025,-1.8956,0.014806,0.031267,1.1506e-06,0.72,0.68,0
0.033621,-0.0061006,0.042762,-0.0011018,0.012498,-0.00031627,0,0,0.055015,-0.024475,0,-0.00017967,0,0,0,0.042778,-0.0011173,0.012498,-0.19725,0.018053,0.038918,2.0483e-06,0.76,0.68,0
0.036436,-0.0069774,0.037629,0.00040405,0.01141,0.00046778,0,0,0.068169,-0.028615,0,0.0024325,0,0,0,0.037635,0.00039818,0.01141,0.71986,0.016481,0.033133,1.1962e-06,0.8,0.68,0
0.039075,-0.0077107,0.037054,0.0012678,0.011496,0.00051164,0,0,0.066449,-0.026595,0,0.0026605,0,0,0,0.037061,0.0012605,0.011496,0.81895,0.016606,0.031938,1.1121e-06,0.84,0.68,0
0.041752,-0.0081424,0.037444,0.00077107,0.011464,0.00073816,0,0,0.067546,-0.027803,0,0.0038384,0,0,0,0.037458,0.00075622,0.011464,1.1526,0.01656,0.032691,1.1668e-06,0.88,0.68,0
0.044479,-0.0083926,0.03779,0.00033766,0.011438,0.00061361,0,0,0.068514,-0.028861,0,0.0031908,0,0,0,0.0378,0.00032761,0.011438,0.93839,0.016522,0.033336,1.2146e-06,0.92,0.68,0
0.047233,-0.0085253,0.037932,2.4056e-05,0.011387,0.00033369,0,0,0.069018,-0.029543,0,0.0017352,0,0,0,0.037935,2.1119e-05,0.011387,0.5043,0.016448,0.033701,1.2385e-06,0.96,0.68,0
0.05,-0.0085669,0.037975,-8.464e-05,0.011367,-0.00019987,0,0,0.06918,-0.029774,0,-0.0010393,0,0,0,0.037976,-8.5689e-05,0.011367,-0.30088,0.016419,0.033822,1.2463e-06,1,0.68,0
0,0,0.033715,0.014449,0.014449,-0.0037523,0,0,0.050091,2.1684e-19,0,-0.019512,0,0,0,0.03442,0.013744,0.014449,-10.641,0.020871,0.020332,4.2995e-07,0,0.72,0
0.0020036,-0.00078048,0.033448,0.011427,0.013462,-0.0036686,0,0,0.051962,-0.0052918,0,-0.019077,0,0,0,0.034043,0.010832,0.013462,-9.2141,0.019446,0.022014,5.2162e-07,0.04,0.72,0
0.0041569,-0.0015232,0.034514,0.0092716,0.013136,-0.003401,0,0,0.055584,-0.010047,0,-0.017685,0,0,0,0.034965,0.0088214,0.013136,-7.5405,0.018974,0.024275,6.5716e-07,0.08,0.72,0
0.0064503,-0.0022057,0.03556,0.0074249,0.012896,-0.0030108,0,0,0.058928,-0.014223,0,-0.015656,0,0,0,0.035879,0.0071064,0.012896,-6.0403,0.018627,0.026359,7.8981e-07,0.12,0.72,0
0.0088711,-0.0028091,0.036539,0.0060277,0.01277,-0.0025384,0,0,0.061799,-0.01753,0,-0.0132,0,0,0,0.036749,0.005818,0.01277,-4.7234,0.018446,0.028107,9.0953e-07,0.16,0.72,0
0.011394,-0.0033179,0.037239,0.0052884,0.012758,-0.0019902,0,0,0.063651,-0.019422,0,-0.010349,0,0,0,0.037363,0.0051649,0.012758,-3.5506,0.018429,0.029153,9.8738e-07,0.2,0.72,0
0.013963,-0.003714,0.037439,0.0057049,0.012943,-0.0014111,0,0,0.063689,-0.01882,0,-0.0073375,0,0,0,0.037502,0.0056423,0.012943,-2.541,0.018696,0.028909,9.7913e-07,0.24,0.72,0
0.01649,-0.0040321,0.037608,0.0035752,0.012355,-0.00092473,0,0,0.048618,-0.015218,0,-0.0036833,0,0,0,0.037634,0.0035492,0.012355,-1.5872,0.017846,0.030702,1.0601e-06,0.28,0.72,0
0.017853,-0.0042356,0.037722,0.0013604,0.011725,-0.0010451,0,0,0.033796,-0.013473,0,-0.0027173,0,0,0,0.037752,0.0013304,0.011725,-1.645,0.016936,0.032496,1.1737e-06,0.32,0.72,0
0.019193,-0.0044525,0.037401,0.00081277,0.011464,-0.00086194,0,0,0.033718,-0.013847,0,-0.002241,0,0,0,0.037422,0.00079247,0.011464,-1.3487,0.01656,0.032629,1.1621e-06,0.36,0.72,0
0.02055,-0.0046683,0.037557,0.00062344,0.011454,-0.00085535,0,0,0.033933,-0.01408,0,-0.0022239,0,0,0,0.037576,0.00060364,0.011454,-1.326,0.016545,0.032917,1.1834e-06,0.4,0.72,0
0.021908,-0.0048745,0.037476,0.00048861,0.011389,-0.0010229,0,0,0.033912,-0.014171,0,-0.0026595,0,0,0,0.037504,0.00046035,0.011389,-1.5829,0.016451,0.032967,1.1815e-06,0.44,0.72,0
0.023263,-0.0050878,0.037313,0.00030891,0.011286,-0.0014004,0,0,0.033834,-0.014271,0,-0.0036409,0,0,0,0.037366,0.00025599,0.011286,-2.1641,0.016303,0.033007,1.1756e-06,0.48,0.72,0
0.024615,-0.00531,0.037123,8.4027e-05,0.011162,-0.0017949,0,0,0.033749,-0.014401,0,-0.0046667,0,0,0,0.037209,-2.7512e-06,0.011162,-2.7679,0.016123,0.033075,1.1696e-06,0.52,0.72,0
0.025963,-0.0055292,0.036758,-0.00016849,0.010977,-0.0022232,0,0,0.033516,-0.014489,0,-0.0057803,0,0,0,0.036892,-0.00030185,0.010977,-3.433,0.015856,0.033031,1.1497e-06,0.56,0.72,0
0.027296,-0.0057414,0.037019,8.5036e-05,0.011131,-0.0023353,0,0,0.033654,-0.01436,0,-0.0060717,0,0,0,0.037166,-6.2033e-05,0.011131,-3.6036,0.016078,0.033084,1.1675e-06,0.6,0.72,0
0.028655,-0.0058379,0.03268,0.0011793,0.010158,-0.0027772,0,0,0.040048,-0.015663,0,-0.0099704,0,0,0,0.032923,0.00093587,0.010158,-5.0601,0.014672,0.028519,9.4636e-07,0.64,0.72,0
0.030378,-0.00602,0.035741,0.00076678,0.010952,-0.0011193,0,0,0.042967,-0.018841,0,-0.0028507,0,0,0,0.035799,0.00070866,0.010952,-1.4033,0.01582,0.031281,1.3599e-06,0.68,0.72,0
0.032093,-0.0064875,0.038784,-0.0015767,0.011162,-0.00020396,0,0,0.050389,-0.02292,0,0.00021881,0,0,0,0.038799,-0.0015918,0.011162,-0.064431,0.016123,0.035764,1.5322e-06,0.72,0.72,0
0.034711,-0.0072959,0.034592,-0.0011063,0.010046,0.00055692,0,0,0.063821,-0.028995,0,0.002896,0,0,0,0.034601,-0.001115,0.010046,0.89356,0.014511,0.031648,9.7181e-07,0.76,0.72,0
0.037198,-0.0081043,0.034312,-0.00015565,0.010247,-4.2075e-05,0,0,0.062569,-0.027047,0,-0.00021879,0,0,0,0.034312,-0.0001557,0.010247,-0.069941,0.014801,0.030622,9.2148e-07,0.8,0.72,0
0.039716,-0.0087452,0.035026,0.00094281,0.010791,0.00018047,0,0,0.063012,-0.025604,0,0.00093844,0,0,0,0.035027,0.00094185,0.010791,0.30337,0.015586,0.030382,9.467e-07,0.84,0.72,0
0.042239,-0.0092117,0.035256,0.0008089,0.010819,0.00036793,0,0,0.063534,-0.026027,0,0.0019132,0,0,0,0.03526,0.00080497,0.010819,0.61188,0.015628,0.030698,9.7023e-07,0.88,0.72,0
0.044799,-0.0095034,0.035599,0.00049771,0.010829,0.00038252,0,0,0.064401,-0.026861,0,0.0019891,0,0,0,0.035603,0.00049354,0.010829,0.6243,0.015642,0.031251,1.009e-06,0.92,0.72,0
0.047391,-0.009663,0.035837,0.00027281,0.010833,0.00022716,0,0,0.06501,-0.027456,0,0.0011812,0,0,0,0.035838,0.00027136,0.010833,0.36595,0.015648,0.031637,1.0364e-06,0.96,0.72,0
0.05,-0.0097138,0.035914,0.00019022,0.010831,-0.0002444,0,0,0.065214,-0.027667,0,-0.0012709,0,0,0,0.035915,0.00018855,0.010831,-0.39196,0.015645,0.031772,1.0457e-06,1,0.72,0
0,0,0.033546,0.014377,0.014377,-0.0048009,0,0,0.049839,4.3368e-19,0,-0.024965,0,0,0,0.034681,0.013242,0.014377,-13.303,0.020766,0.020895,4.6387e-07,0,0.76,0
0.0019936,-0.00099858,0.033254,0.011215,0.013341,-0.0047336,0,0,0.051776,-0.0055279,0,-0.024615,0,0,0,0.034228,0.010241,0.013341,-11.623,0.01927,0.022597,5.5523e-07,0.04,0.76,0
0.0041421,-0.0019375,0.034303,0.0088953,0.01296,-0.0044422,0,0,0.055493,-0.010567,0,-0.0231,0,0,0,0.035057,0.0081411,0.01296,-9.6368,0.018719,0.02486,6.902e-07,0.08,0.76,0
0.006433,-0.0027906,0.035299,0.0069349,0.01267,-0.0040137,0,0,0.058835,-0.014912,0,-0.020871,0,0,0,0.035856,0.0063779,0.01267,-7.901,0.018301,0.02689,8.1727e-07,0.12,0.76,0
0.0088489,-0.0035273,0.036253,0.0055086,0.012528,-0.0034693,0,0,0.061684,-0.018252,0,-0.01804,0,0,0,0.03664,0.005122,0.012528,-6.3589,0.018097,0.028544,9.2887e-07,0.16,0.76,0
0.011368,-0.0041148,0.037236,0.0048136,0.012615,-0.0027738,0,0,0.064014,-0.020283,0,-0.014424,0,0,0,0.037471,0.0045781,0.012615,-4.8548,0.018221,0.029702,1.021e-06,0.2,0.76,0
0.01397,-0.0045011,0.037972,0.0049186,0.012867,-0.0018128,0,0,0.065273,-0.020666,0,-0.0094266,0,0,0,0.038071,0.0048195,0.012867,-3.1298,0.018586,0.030047,1.0636e-06,0.24,0.76,0
0.01659,-0.0046438,0.037407,0.0023858,0.011938,-0.0015313,0,0,0.049482,-0.016557,0,-0.0053755,0,0,0,0.037477,0.0023163,0.011938,-2.4482,0.017244,0.031549,1.0783e-06,0.28,0.76,0
0.017929,-0.0047704,0.037953,0.00093676,0.011667,-0.00032228,0,0,0.034172,-0.013949,0,-0.00083792,0,0,0,0.037956,0.00093395,0.011667,-0.49878,0.016852,0.032992,1.2078e-06,0.32,0.76,0
0.019323,-0.0050164,0.038194,0.00087152,0.01172,-0.00075001,0,0,0.034417,-0.014103,0,-0.00195,0,0,0,0.038209,0.00085646,0.01172,-1.1508,0.016928,0.033279,1.2352e-06,0.36,0.76,0
0.020682,-0.0052266,0.037362,0.00064287,0.011401,-0.00051465,0,0,0.033748,-0.013986,0,-0.0013381,0,0,0,0.037369,0.00063566,0.011401,-0.80285,0.016469,0.032707,1.1626e-06,0.4,0.76,0
0.022023,-0.005431,0.036985,0.00092255,0.011372,-0.00072764,0,0,0.033296,-0.013584,0,-0.0018919,0,0,0,0.036999,0.00090787,0.011372,-1.1555,0.016426,0.032162,1.1188e-06,0.44,0.76,0
0.023346,-0.0056445,0.036571,0.00082171,0.011218,-0.0011429,0,0,0.03296,-0.013515,0,-0.0029717,0,0,0,0.036608,0.00078521,0.011218,-1.8293,0.016204,0.031912,1.0876e-06,0.48,0.76,0
0.02466,-0.0058703,0.036022,0.00028677,0.010893,-0.0015329,0,0,0.032669,-0.013788,0,-0.0039854,0,0,0,0.036088,0.00022114,0.010893,-2.4517,0.015734,0.031899,1.0599e-06,0.52,0.76,0
0.025959,-0.0060939,0.035438,4.0026e-05,0.010644,-0.0015967,0,0,0.032233,-0.013785,0,-0.0041515,0,0,0,0.03551,-3.1853e-05,0.010644,-2.5775,0.015374,0.031588,1.0175e-06,0.56,0.76,0
0.027239,-0.0062737,0.033276,-0.00051076,0.0098296,-0.0019977,0,0,0.030481,-0.013442,0,-0.0051939,0,0,0,0.033394,-0.00062847,0.0098296,-3.372,0.014198,0.030184,8.6211e-07,0.6,0.76,0
0.028397,-0.0064764,0.031228,-0.0013822,0.0089538,-0.00095698,0,0,0.043427,-0.017916,0,-0.004304,0,0,0,0.031265,-0.0014193,0.0089538,-1.7791,0.012933,0.029019,6.8718e-07,0.64,0.76,0
0.030713,-0.0069159,0.032495,-5.2205e-05,0.009733,-0.00031942,0,0,0.059182,-0.025441,0,-0.001661,0,0,0,0.032499,-5.5339e-05,0.009733,-0.56222,0.014059,0.02893,7.8061e-07,0.68,0.76,0
0.033132,-0.0076057,0.031935,-0.0017198,0.0090645,0.00040528,0,0,0.059463,-0.028039,0,0.0021074,0,0,0,0.03194,-0.0017247,0.0090645,0.68983,0.013093,0.029774,7.8008e-07,0.72,0.76,0
0.03547,-0.0084203,0.032037,-0.0011321,0.0092716,-0.00030665,0,0,0.059191,-0.02705,0,-0.0015946,0,0,0,0.03204,-0.001135,0.0092716,-0.52963,0.013392,0.029388,7.7401e-07,0.76,0.76,0
0.037867,-0.0091411,0.032903,4.8726e-05,0.0098853,-0.00026932,0,0,0.059845,-0.025575,0,-0.0014004,0,0,0,0.032905,4.6518e-05,0.0098853,-0.46964,0.014279,0.029209,8.0753e-07,0.8,0.76,0
0.040257,-0.0097591,0.033164,0.00053236,0.010109,-0.00017627,0,0,0.059944,-0.024899,0,-0.00091662,0,0,0,0.033165,0.00053141,0.010109,-0.30949,0.014602,0.029054,8.1369e-07,0.84,0.76,0
0.042663,-0.010225,0.033483,0.00069811,0.010254,1.6409e-05,0,0,0.060395,-0.024846,0,8.5325e-05,0,0,0,0.033483,0.00069811,0.010254,0.028676,0.014812,0.029204,8.3274e-07,0.88,0.76,0
0.045089,-0.010542,0.033723,0.00056668,0.010287,0.00010819,0,0,0.060935,-0.025273,0,0.00056258,0,0,0,0.033724,0.00056633,0.010287,0.18695,0.014859,0.029523,8.5473e-07,0.92,0.76,0
0.047538,-0.010722,0.033911,0.00042431,0.010301,8.7617e-05,0,0,0.061388,-0.025679,0,0.00045561,0,0,0,0.033911,0.00042408,0.010301,0.14991,0.014879,0.029803,8.7328e-07,0.96,0.76,0
0.05,-0.01078,0.03398,0.00036911,0.010305,-0.00028077,0,0,0.061557,-0.025833,0,-0.00146,0,0,0,0.033983,0.00036676,0.010305,-0.47857,0.014885,0.029912,8.8048e-07,1,0.76,0
0,0,0.033181,0.01422,0.01422,-0.0058784,0,0,0.049298,-2.3852e-18,0,-0.030568,0,0,0,0.034856,0.012546,0.01422,-15.901,0.020541,0.021521,5.0152e-07,0,0.8,0
0.0019719,-0.0012227,0.032866,0.010967,0.01315,-0.0057966,0,0,0.051262,-0.0056754,0,-0.030142,0,0,0,0.034306,0.0095276,0.01315,-13.948,0.018995,0.02318,5.874e-07,0.04,0.8,0
0.004101,-0.0023686,0.033823,0.0084294,0.012676,-0.0054213,0,0,0.054983,-0.01104,0,-0.028191,0,0,0,0.034932,0.0073204,0.012676,-11.561,0.018309,0.025361,7.1351e-07,0.08,0.8,0
0.0063705,-0.0033987,0.034649,0.0063113,0.012288,-0.0048609,0,0,0.058139,-0.01554,0,-0.025277,0,0,0,0.03546,0.0055007,0.012288,-9.4676,0.01775,0.027208,8.2147e-07,0.12,0.8,0
0.0087521,-0.0042693,0.035338,0.0048318,0.012051,-0.0041912,0,0,0.060546,-0.01877,0,-0.021794,0,0,0,0.035903,0.0042665,0.012051,-7.6822,0.017407,0.028552,9.0258e-07,0.16,0.8,0
0.011214,-0.0049405,0.035994,0.0040833,0.012023,-0.0034842,0,0,0.062325,-0.020644,0,-0.018118,0,0,0,0.036371,0.0037073,0.012023,-6.1591,0.017367,0.029401,9.6179e-07,0.2,0.8,0
0.013738,-0.0053673,0.036883,0.0040955,0.012294,-0.0024528,0,0,0.063932,-0.021315,0,-0.012754,0,0,0,0.037065,0.0039131,0.012294,-4.2546,0.017757,0.029857,1.0126e-06,0.24,0.8,0
0.016329,-0.0053567,0.042287,0.0025838,0.013461,-0.0024658,0,0,0.05208,-0.019371,0,-0.0096266,0,0,0,0.042449,0.0024225,0.013461,-3.7375,0.019444,0.035808,1.8547e-06,0.28,0.8,0
0.018158,-0.0053515,0.033483,0.00073448,0.010265,-5.4123e-05,0,0,0.041617,-0.016919,0,-0.00022735,0,0,0,0.033483,0.00073437,0.010265,-0.10685,0.014828,0.029176,9.7724e-07,0.32,0.8,0
0.019493,-0.0055807,0.037156,0.00017573,0.011199,0.00014253,0,0,0.033743,-0.014331,0,0.00037057,0,0,0,0.037156,0.00017519,0.011199,0.22082,0.016177,0.032885,1.1586e-06,0.36,0.8,0
0.020858,-0.0057871,0.037223,0.00092619,0.011445,-4.4934e-05,0,0,0.033512,-0.013674,0,-0.00011683,0,0,0,0.037223,0.00092614,0.011445,-0.070928,0.016532,0.032347,1.1388e-06,0.4,0.8,0
0.022174,-0.0059612,0.036369,0.0013046,0.011302,-0.00028026,0,0,0.032587,-0.012997,0,-0.00072868,0,0,0,0.036371,0.0013023,0.011302,-0.45791,0.016325,0.031291,1.0488e-06,0.44,0.8,0
0.023465,-0.006169,0.035857,0.0012678,0.011137,-0.00073256,0,0,0.032135,-0.01283,0,-0.0019047,0,0,0,0.035872,0.0012523,0.011137,-1.2127,0.016087,0.030887,1.0074e-06,0.48,0.8,0
0.024745,-0.0064131,0.035626,0.00076978,0.010919,-0.0010307,0,0,0.03212,-0.013194,0,-0.0026798,0,0,0,0.035657,0.00073933,0.010919,-1.6923,0.015772,0.031103,1.0058e-06,0.52,0.8,0
0.026034,-0.006632,0.034478,-0.00024644,0.010269,-0.0011848,0,0,0.031471,-0.013671,0,-0.0030804,0,0,0,0.034518,-0.00028681,0.010269,-1.9519,0.014833,0.030909,9.4189e-07,0.56,0.8,0
0.027263,-0.0068168,0.030492,-0.00025499,0.0090712,-0.0006784,0,0,0.038413,-0.016683,0,-0.0020192,0,0,0,0.030511,-0.00027341,0.0090712,-1.1104,0.013103,0.027337,7.6474e-07,0.6,0.8,0
0.028953,-0.0072711,0.037583,-0.0013903,0.010858,0.0010045,0,0,0.048355,-0.021911,0,0.0039566,0,0,0,0.03761,-0.001418,0.010858,1.5651,0.015683,0.034567,1.4265e-06,0.64,0.8,0
0.031375,-0.0080554,0.032646,-0.00094785,0.0095093,0.00010734,0,0,0.060154,-0.027189,0,0.00055815,0,0,0,0.032646,-0.0009482,0.0095093,0.18307,0.013736,0.029776,8.137e-07,0.68,0.8,0
0.033766,-0.0087306,0.032033,-0.0012798,0.0092259,-0.00019721,0,0,0.059298,-0.027315,0,-0.0010255,0,0,0,0.032034,-0.0012809,0.0092259,-0.33917,0.013326,0.0295,7.769e-07,0.72,0.8,0
0.036119,-0.0094599,0.03179,-0.00049523,0.0093884,-0.00045297,0,0,0.058244,-0.025697,0,-0.0023555,0,0,0,0.031796,-0.00050158,0.0093884,-0.80368,0.013561,0.028662,7.4189e-07,0.76,0.8,0
0.038425,-0.01015,0.031622,-5.99e-05,0.0094686,-0.00051303,0,0,0.057599,-0.024774,0,-0.0026677,0,0,0,0.03163,-6.8205e-05,0.0094686,-0.92747,0.013677,0.028168,7.2005e-07,0.8,0.8,0
0.040727,-0.010737,0.031777,0.00037429,0.0096455,-0.00038854,0,0,0.057543,-0.024105,0,-0.0020204,0,0,0,0.031782,0.00036948,0.0096455,-0.70875,0.013932,0.027954,7.196e-07,0.84,0.8,0
0.043029,-0.011199,0.03192,0.0005252,0.0097336,-0.00023321,0,0,0.057685,-0.023942,0,-0.0012127,0,0,0,0.031922,0.00052347,0.0097336,-0.42558,0.01406,0.027955,7.2524e-07,0.88,0.8,0
0.045341,-0.011525,0.032079,0.00052269,0.0097804,-0.00010084,0,0,0.057975,-0.02407,0,-0.00052435,0,0,0,0.032079,0.00052237,0.0097804,-0.18308,0.014127,0.028096,7.3609e-07,0.92,0.8,0
0.047667,-0.011717,0.032193,0.0004607,0.0097962,-2.9702e-05,0,0,0.058233,-0.024272,0,-0.00015445,0,0,0,0.032193,0.00046067,0.0097962,-0.053629,0.01415,0.028247,7.4565e-07,0.96,0.8,0
0.05,-0.01178,0.032237,0.00043119,0.0098005,-0.00030379,0,0,0.058335,-0.02436,0,-0.0015797,0,0,0,0.03224,0.00042829,0.0098005,-0.54719,0.014156,0.028314,7.4976e-07,1,0.8,0
0,0,0.032826,0.014068,0.014068,-0.0069837,0,0,0.04877,0,0,-0.036315,0,0,0,0.03514,0.011754,0.014068,-18.336,0.020321,0.02232,5.5041e-07,0,0.84,0
0.0019508,-0.0014526,0.03246,0.010631,0.012927,-0.0068317,0,0,0.050785,-0.0059702,0,-0.035525,0,0,0,0.034422,0.0086693,0.012927,-16.022,0.018673,0.02391,6.2761e-07,0.04,0.84,0
0.0040628,-0.0028207,0.033262,0.0077258,0.012296,-0.006259,0,0,0.05451,-0.011883,0,-0.032547,0,0,0,0.034713,0.0062742,0.012296,-13.057,0.017761,0.025957,7.3786e-07,0.08,0.84,0
0.0063116,-0.0040338,0.033807,0.0054158,0.011767,-0.0054005,0,0,0.057305,-0.016513,0,-0.028082,0,0,0,0.0348,0.0044233,0.011767,-10.414,0.016997,0.027452,8.1168e-07,0.12,0.84,0
0.0086472,-0.0050289,0.033997,0.0039295,0.011378,-0.0044458,0,0,0.058809,-0.019366,0,-0.023118,0,0,0,0.03464,0.0032859,0.011378,-8.2371,0.016435,0.028193,8.3934e-07,0.16,0.84,0
0.011016,-0.0057663,0.033754,0.0031395,0.011068,-0.0035429,0,0,0.058983,-0.020614,0,-0.018423,0,0,0,0.034159,0.0027348,0.011068,-6.5159,0.015987,0.028196,8.2134e-07,0.2,0.84,0
0.013366,-0.0062063,0.033214,0.0028533,0.01082,-0.0025934,0,0,0.058224,-0.020714,0,-0.013486,0,0,0,0.033434,0.0026334,0.01082,-4.8474,0.015629,0.027632,7.7151e-07,0.24,0.84,0
0.015674,-0.0062555,0.033662,0.0020489,0.010713,-0.0020565,0,0,0.059667,-0.022528,0,-0.010694,0,0,0,0.033795,0.0019157,0.010713,-3.7063,0.015475,0.028518,8.2012e-07,0.28,0.84,0
0.018139,-0.0060761,0.037816,0.00022602,0.011413,-0.0013813,0,0,0.048031,-0.020028,0,-0.0058603,0,0,0,0.037878,0.00016328,0.011413,-2.3235,0.016485,0.033538,1.3714e-06,0.32,0.84,0
0.019789,-0.0061629,0.030431,-6.7804e-05,0.009109,-0.00033162,0,0,0.038027,-0.016177,0,-0.002067,0,0,0,0.030451,-8.785e-05,0.009109,-0.9874,0.013157,0.027136,7.6711e-07,0.36,0.84,0
0.021053,-0.0063206,0.035333,0.0004505,0.010735,-0.00029353,0,0,0.031977,-0.01337,0,-0.00076319,0,0,0,0.035335,0.00044803,0.010735,-0.48209,0.015506,0.03105,9.8778e-07,0.4,0.84,0
0.022347,-0.0064708,0.036084,0.0011205,0.011161,-8.383e-05,0,0,0.0324,-0.013053,0,-0.00021796,0,0,0,0.036084,0.0011203,0.011161,-0.13737,0.016122,0.031181,1.03e-06,0.44,0.84,0
0.023645,-0.0066709,0.035673,0.0011276,0.01104,-5.789e-05,0,0,0.032022,-0.012886,0,-0.00015051,0,0,0,0.035673,0.0011275,0.01104,-0.096015,0.015947,0.030809,9.9451e-07,0.48,0.84,0
0.024909,-0.0069258,0.034126,0.00041891,0.010363,0.00014932,0,0,0.030891,-0.012928,0,0.00038822,0,0,0,0.034127,0.00041825,0.010363,0.2538,0.01497,0.029999,8.9025e-07,0.52,0.84,0
0.026116,-0.0071876,0.028729,-0.00043946,0.0084869,0.00026659,0,0,0.036065,-0.015789,0,0.0020068,0,0,0,0.028756,-0.00046631,0.0084869,0.9759,0.012259,0.025932,6.5757e-07,0.56,0.84,0
0.027676,-0.0075462,0.035207,-0.0011115,0.010228,0.00094117,0,0,0.045443,-0.020366,0,0.004208,0,0,0,0.035242,-0.0011466,0.010228,1.6957,0.014774,0.032244,1.1469e-06,0.6,0.84,0
0.03001,-0.0083111,0.030885,-0.00070115,0.0090551,0.00096367,0,0,0.056757,-0.025366,0,0.0050111,0,0,0,0.030914,-0.00073053,0.0090551,1.7459,0.01308,0.028062,6.8727e-07,0.64,0.84,0
0.032217,-0.009091,0.030239,-0.00067865,0.008868,0.00038484,0,0,0.055563,-0.024821,0,0.0020012,0,0,0,0.030243,-0.00068344,0.008868,0.71303,0.012809,0.027428,6.4283e-07,0.68,0.84,0
0.034455,-0.0097909,0.030406,-0.00091381,0.0088477,-2.5295e-05,0,0,0.056052,-0.02538,0,-0.00013154,0,0,0,0.030406,-0.00091383,0.0088477,-0.046274,0.01278,0.027758,6.5809e-07,0.72,0.84,0
0.036701,-0.010476,0.030533,-0.00049631,0.009011,-0.0004155,0,0,0.055957,-0.024719,0,-0.0021606,0,0,0,0.030538,-0.00050188,0.009011,-0.76704,0.013016,0.027545,6.5773e-07,0.76,0.84,0
0.038931,-0.011123,0.030498,-5.3373e-05,0.0091333,-0.00053632,0,0,0.055548,-0.023885,0,-0.0027889,0,0,0,0.030507,-6.2785e-05,0.0091333,-1.0054,0.013193,0.027165,6.4597e-07,0.8,0.84,0
0.041145,-0.011687,0.030472,0.00022138,0.0092079,-0.00049068,0,0,0.055286,-0.023365,0,-0.0025515,0,0,0,0.030479,0.00021342,0.0092079,-0.92905,0.0133,0.02692,6.3794e-07,0.84,0.84,0
0.043354,-0.01214,0.030519,0.00037665,0.0092686,-0.00036254,0,0,0.055251,-0.023119,0,-0.0018852,0,0,0,0.030523,0.0003723,0.0092686,-0.68899,0.013388,0.026833,6.3702e-07,0.88,0.84,0
0.045565,-0.012467,0.03058,0.00041481,0.0092984,-0.00022407,0,0,0.055332,-0.023097,0,-0.0011651,0,0,0,0.030582,0.00041314,0.0092984,-0.42556,0.013431,0.026852,6.3975e-07,0.92,0.84,0
0.047781,-0.012664,0.030634,0.00040431,0.0093115,-0.00010292,0,0,0.055439,-0.023159,0,-0.00053519,0,0,0,0.030634,0.00040396,0.0093115,-0.19507,0.01345,0.026906,6.433e-07,0.96,0.84,0
0.05,-0.012729,0.030655,0.00039393,0.0093146,-0.00031457,0,0,0.055484,-0.023194,0,-0.0016358,0,0,0,0.030658,0.00039067,0.0093146,-0.59552,0.013454,0.026938,6.451e-07,1,0.84,0
0,0,0.032823,0.014067,0.014067,-0.0081746,0,0,0.048766,2.6021e-18,0,-0.042508,0,0,0,0.035886,0.011004,0.014067,-20.539,0.020319,0.0235,6.2856e-07,0,0.88,0
0.0019506,-0.0017003,0.032332,0.010081,0.012724,-0.0078097,0,0,0.050981,-0.0068712,0,-0.040611,0,0,0,0.034799,0.0076136,0.012724,-17.534,0.018379,0.025025,6.9311e-07,0.04,0.88,0
0.0040784,-0.0033192,0.032884,0.0065138,0.011819,-0.0068466,0,0,0.054768,-0.013795,0,-0.035602,0,0,0,0.034556,0.0048422,0.011819,-13.721,0.017072,0.026912,7.7881e-07,0.08,0.88,0
0.0063321,-0.0047197,0.033051,0.0040958,0.011144,-0.0054311,0,0,0.056959,-0.018326,0,-0.028242,0,0,0,0.034037,0.0031107,0.011144,-10.281,0.016097,0.027794,8.0007e-07,0.12,0.88,0
0.0086352,-0.0058185,0.032721,0.0028617,0.010675,-0.0040797,0,0,0.057321,-0.020314,0,-0.021214,0,0,0,0.033269,0.0023143,0.010675,-7.6417,0.015419,0.027736,7.6948e-07,0.16,0.88,0
0.010918,-0.0065897,0.031977,0.0022846,0.010278,-0.0029119,0,0,0.056416,-0.020784,0,-0.015142,0,0,0,0.03226,0.0020017,0.010278,-5.5484,0.014847,0.027085,7.0845e-07,0.2,0.88,0
0.013148,-0.0070244,0.031266,0.0020347,0.0099901,-0.0019379,0,0,0.055317,-0.020684,0,-0.010077,0,0,0,0.031394,0.0019068,0.0099901,-3.7764,0.01443,0.026391,6.5401e-07,0.24,0.88,0
0.015343,-0.0071589,0.030087,0.00097594,0.0093189,-0.0012004,0,0,0.053997,-0.021692,0,-0.0062419,0,0,0,0.030136,0.00092653,0.0093189,-2.3572,0.013461,0.026048,6.0023e-07,0.28,0.88,0
0.017468,-0.0070303,0.029895,0.00021025,0.0090314,-0.0015296,0,0,0.054244,-0.022935,0,-0.007954,0,0,0,0.029973,0.00013163,0.0090314,-2.9421,0.013045,0.026536,6.0839e-07,0.32,0.88,0
0.019683,-0.0068424,0.032602,-0.00075606,0.0095538,-0.0013564,0,0,0.042152,-0.018312,0,-0.0055493,0,0,0,0.032665,-0.00081846,0.0095538,-2.5059,0.0138,0.029694,8.8897e-07,0.36,0.88,0
0.021105,-0.0068567,0.029333,0.0005439,0.0089632,-0.00076091,0,0,0.035308,-0.015188,0,-0.0035799,0,0,0,0.029372,0.00050518,0.0089632,-1.968,0.012947,0.025713,7.5078e-07,0.4,0.88,0
0.022507,-0.0070055,0.029321,0.0010337,0.0091065,-0.00015159,0,0,0.035039,-0.014305,0,-0.00064973,0,0,0,0.029322,0.0010326,0.0091065,-0.37319,0.013154,0.025243,7.3378e-07,0.44,0.88,0
0.023908,-0.0071999,0.029154,0.0010651,0.0090658,0.00060945,0,0,0.03482,-0.01419,0,0.0026487,0,0,0,0.029174,0.0010455,0.0090658,1.5274,0.013095,0.025101,7.2101e-07,0.48,0.88,0
0.025293,-0.0074473,0.028868,0.0005893,0.0088371,0.0011878,0,0,0.03472,-0.014926,0,0.0054803,0,0,0,0.028956,0.00050072,0.0088371,3.047,0.012765,0.025349,7.1575e-07,0.52,0.88,0
0.026685,-0.0078571,0.031753,-0.00095561,0.0092393,0.0016904,0,0,0.041132,-0.018138,0,0.0068024,0,0,0,0.031849,-0.0010513,0.0092393,3.1474,0.013346,0.029155,8.3275e-07,0.56,0.88,0
0.028836,-0.0085312,0.028629,-0.00072704,0.0083707,0.0014831,0,0,0.052673,-0.023654,0,0.0077119,0,0,0,0.028704,-0.00080177,0.0083707,2.8847,0.012091,0.026155,5.5251e-07,0.6,0.88,0
0.030899,-0.0093004,0.02839,-0.00071988,0.0083009,0.00051263,0,0,0.052231,-0.023454,0,0.0026657,0,0,0,0.028399,-0.0007289,0.0083009,1.0086,0.01199,0.025825,5.3386e-07,0.64,0.88,0
0.033015,-0.010041,0.028996,-0.0003081,0.0086065,0.00018743,0,0,0.053014,-0.023178,0,0.00097464,0,0,0,0.028998,-0.0003093,0.0086065,0.36644,0.012432,0.026021,5.5979e-07,0.68,0.88,0
0.03514,-0.010761,0.029099,-0.00042124,0.0086034,-0.00012372,0,0,0.053289,-0.023464,0,-0.00064337,0,0,0,0.0291,-0.00042176,0.0086034,-0.24013,0.012427,0.026202,5.6796e-07,0.72,0.88,0
0.037278,-0.011437,0.029216,-0.0003123,0.008671,-0.00036784,0,0,0.053416,-0.023357,0,-0.0019128,0,0,0,0.02922,-0.00031688,0.008671,-0.71361,0.012525,0.026225,5.7289e-07,0.76,0.88,0
0.039413,-0.012061,0.029236,-7.4556e-05,0.0087484,-0.00049681,0,0,0.053268,-0.02294,0,-0.0025834,0,0,0,0.029244,-8.2974e-05,0.0087484,-0.97078,0.012637,0.026059,5.695e-07,0.8,0.88,0
0.041539,-0.012606,0.029201,0.00012551,0.0087981,-0.0004882,0,0,0.053049,-0.022549,0,-0.0025386,0,0,0,0.02921,0.00011732,0.0087981,-0.96166,0.012708,0.025868,5.6331e-07,0.84,0.88,0
0.043657,-0.013049,0.029172,0.00023964,0.0088234,-0.00039639,0,0,0.052905,-0.022318,0,-0.0020612,0,0,0,0.029177,0.00023421,0.0088234,-0.78479,0.012745,0.025746,5.5897e-07,0.88,0.88,0
0.045772,-0.013373,0.029164,0.00028767,0.0088356,-0.00026804,0,0,0.052855,-0.022225,0,-0.0013938,0,0,0,0.029167,0.00028518,0.0088356,-0.53177,0.012762,0.025697,5.573e-07,0.92,0.88,0
0.047886,-0.01357,0.029167,0.00029654,0.008839,-0.00013291,0,0,0.052852,-0.02221,0,-0.00069113,0,0,0,0.029167,0.00029593,0.008839,-0.26376,0.012767,0.025688,5.5711e-07,0.96,0.88,0
0.05,-0.013636,0.029169,0.00029591,0.0088396,-0.00031725,0,0,0.052857,-0.022214,0,-0.0016497,0,0,0,0.029173,0.00029243,0.0088396,-0.62944,0.012768,0.025696,5.575e-07,1,0.88,0
0,0,0.03401,0.014576,0.014576,-0.0096265,0,0,0.050529,-8.6736e-19,0,-0.050058,0,0,0,0.037971,0.010615,0.014576,-22.366,0.021054,0.025607,7.9324e-07,0,0.92,0
0.0020212,-0.0020023,0.032804,0.00869,0.012448,-0.0087354,0,0,0.052925,-0.0097714,0,-0.045424,0,0,0,0.035636,0.0058582,0.012448,-17.962,0.017981,0.027091,8.2102e-07,0.04,0.92,0
0.004234,-0.0039243,0.032922,0.0042168,0.011142,-0.006685,0,0,0.05663,-0.018005,0,-0.034762,0,0,0,0.034403,0.0027363,0.011142,-12.487,0.016094,0.028412,8.3969e-07,0.08,0.92,0
0.0065515,-0.0054999,0.032626,0.0026345,0.010578,-0.0046464,0,0,0.057324,-0.020653,0,-0.024161,0,0,0,0.033329,0.0019312,0.010578,-8.6079,0.015279,0.028091,7.8539e-07,0.12,0.92,0
0.00882,-0.006654,0.031384,0.0017664,0.0099452,-0.0030765,0,0,0.055742,-0.021265,0,-0.015998,0,0,0,0.0317,0.0014502,0.0099452,-5.8679,0.014365,0.027023,6.8614e-07,0.16,0.92,0
0.011011,-0.007429,0.030189,0.0013862,0.0094724,-0.0019371,0,0,0.053862,-0.021024,0,-0.010073,0,0,0,0.030318,0.0012565,0.0094724,-3.8304,0.013682,0.025948,6.034e-07,0.2,0.92,0
0.013129,-0.007861,0.029106,0.001088,0.0090581,-0.0010416,0,0,0.052124,-0.020722,0,-0.0054164,0,0,0,0.029144,0.0010493,0.0090581,-2.1262,0.013084,0.025069,5.3951e-07,0.24,0.92,0
0.015181,-0.0079908,0.028201,0.00077792,0.0086936,-0.00047725,0,0,0.050719,-0.020581,0,-0.0024817,0,0,0,0.028209,0.00076961,0.0086936,-0.99674,0.012557,0.02446,4.9428e-07,0.28,0.92,0
0.017186,-0.0079109,0.026669,-8.9014e-05,0.0079741,-0.00017292,0,0,0.048608,-0.020964,0,-0.0008992,0,0,0,0.026671,-9.0132e-05,0.0079741,-0.37024,0.011518,0.023777,4.3223e-07,0.32,0.92,0
0.019069,-0.0076808,0.025497,-0.0004972,0.0075,-0.00076804,0,0,0.046792,-0.020793,0,-0.0039938,0,0,0,0.02552,-0.00051987,0.0075,-1.6909,0.010833,0.023099,3.8536e-07,0.36,0.92,0
0.02093,-0.0075356,0.024614,0.0002436,0.0074572,-0.00036759,0,0,0.044607,-0.018755,0,-0.0019115,0,0,0,0.024619,0.00023805,0.0074572,-0.86397,0.010771,0.021692,3.352e-07,0.4,0.92,0
0.022638,-0.0076152,0.023432,0.00068515,0.0072352,1.5089e-05,0,0,0.042112,-0.01703,0,7.846e-05,0,0,0,0.023432,0.00068514,0.0072352,0.038005,0.010451,0.020282,2.8265e-07,0.44,0.92,0
0.024299,-0.0078061,0.023417,0.00069458,0.0072336,0.00062698,0,0,0.042078,-0.017001,0,0.0032603,0,0,0,0.023435,0.00067729,0.0072336,1.5793,0.010448,0.02029,2.8285e-07,0.48,0.92,0
0.026004,-0.0081199,0.024538,0.00022332,0.0074285,0.00099351,0,0,0.044485,-0.018733,0,0.0051663,0,0,0,0.024579,0.0001828,0.0074285,2.3359,0.01073,0.0217,3.3437e-07,0.52,0.92,0
0.027858,-0.0086945,0.025352,-0.00066058,0.0074074,0.0012895,0,0,0.046656,-0.020977,0,0.0067053,0,0,0,0.025416,-0.00072434,0.0074074,2.831,0.0107,0.02317,3.8376e-07,0.56,0.92,0
0.029737,-0.0094385,0.026341,-0.00063754,0.0077111,0.00043488,0,0,0.048438,-0.021706,0,0.0022614,0,0,0,0.026348,-0.00064455,0.0077111,0.92326,0.011138,0.023935,4.2586e-07,0.6,0.92,0
0.031733,-0.010187,0.027521,-0.00018913,0.0081995,0.00018105,0,0,0.050235,-0.02181,0,0.00094145,0,0,0,0.027522,-0.00019032,0.0081995,0.37433,0.011844,0.024614,4.7673e-07,0.64,0.92,0
0.033756,-0.010945,0.027847,-0.00019935,0.0082942,-7.0308e-05,0,0,0.050836,-0.022083,0,-0.0003656,0,0,0,0.027847,-0.00019953,0.0082942,-0.14363,0.01198,0.02491,4.9394e-07,0.68,0.92,0
0.0358,-0.011668,0.028038,-0.00016576,0.0083617,-0.00021761,0,0,0.051159,-0.022171,0,-0.0011316,0,0,0,0.02804,-0.00016744,0.0083617,-0.44204,0.012078,0.025056,5.0365e-07,0.72,0.92,0
0.037848,-0.012345,0.028057,-0.00013929,0.0083754,-0.00034587,0,0,0.051173,-0.022138,0,-0.0017985,0,0,0,0.028062,-0.00014353,0.0083754,-0.70266,0.012098,0.025056,5.0437e-07,0.76,0.92,0
0.039893,-0.012958,0.028013,-4.3882e-05,0.0083908,-0.00041665,0,0,0.051018,-0.02193,0,-0.0021666,0,0,0,0.028019,-5.0068e-05,0.0083908,-0.8506,0.01212,0.024944,5.0032e-07,0.8,0.92,0
0.04193,-0.013491,0.027927,6.0383e-05,0.0083963,-0.00041417,0,0,0.050781,-0.021673,0,-0.0021537,0,0,0,0.027933,5.4228e-05,0.0083963,-0.8513,0.012128,0.024785,4.9376e-07,0.84,0.92,0
0.043956,-0.013925,0.027837,0.00013237,0.0083909,-0.00034799,0,0,0.050561,-0.021472,0,-0.0018096,0,0,0,0.027842,0.00012799,0.0083909,-0.71953,0.01212,0.024644,4.875e-07,0.88,0.92,0
0.045974,-0.014245,0.027767,0.00016722,0.0083802,-0.00024443,0,0,0.050405,-0.021354,0,-0.001271,0,0,0,0.027769,0.00016506,0.0083802,-0.50737,0.012105,0.02455,4.8299e-07,0.92,0.92,0
0.047988,-0.01444,0.027725,0.00017893,0.0083711,-0.00012454,0,0,0.05032,-0.0213,0,-0.00064763,0,0,0,0.027725,0.00017836,0.0083711,-0.25905,0.012092,0.024501,4.8046e-07,0.96,0.92,0
0.05,-0.014506,0.027711,0.00018087,0.0083676,-0.00031577,0,0,0.050293,-0.021285,0,-0.001642,0,0,0,0.027715,0.00017725,0.0083676,-0.65706,0.012087,0.024492,4.7992e-07,1,0.92,0
0,0,0.037709,0.016161,0.016161,-0.011933,0,0,0.056024,1.7347e-18,0,-0.062051,0,0,0,0.043012,0.010858,0.016161,-23.961,0.023343,0.029858,1.223e-06,0,0.96,0
0.002241,-0.002482,0.03449,0.0036335,0.011437,-0.0075795,0,0,0.059938,-0.020289,0,-0.039413,0,0,0,0.036251,0.0018722,0.011437,-13.082,0.01652,0.030734,1.0186e-06,0.04,0.96,0
0.004795,-0.0047596,0.034761,0.0027758,0.011261,-0.0047601,0,0,0.0611,-0.022061,0,-0.024753,0,0,0,0.035454,0.0020825,0.011261,-8.2878,0.016266,0.02986,9.4444e-07,0.08,0.96,0
0.0071289,-0.006372,0.031473,0.0014884,0.0098883,-0.002684,0,0,0.056119,-0.02184,0,-0.013957,0,0,0,0.031711,0.0012501,0.0098883,-5.075,0.014283,0.027191,6.9213e-07,0.12,0.96,0
0.0092845,-0.0075197,0.029177,0.00093395,0.0090334,-0.0016034,0,0,0.052374,-0.021059,0,-0.0083377,0,0,0,0.029268,0.00084321,0.0090334,-3.2388,0.013048,0.025343,5.5108e-07,0.16,0.96,0
0.011319,-0.0082716,0.027714,0.00068682,0.0085203,-0.00087808,0,0,0.049904,-0.020367,0,-0.004566,0,0,0,0.027743,0.00065832,0.0085203,-1.8588,0.012307,0.024134,4.721e-07,0.2,0.96,0
0.013277,-0.0086822,0.026859,0.00056338,0.0082268,-0.00033572,0,0,0.048444,-0.019925,0,-0.0017457,0,0,0,0.026863,0.0005591,0.0082268,-0.73135,0.011883,0.023431,4.3006e-07,0.24,0.96,0
0.015194,-0.0088054,0.026328,0.00038373,0.0080134,9.5474e-05,0,0,0.047617,-0.019837,0,0.00049646,0,0,0,0.026328,0.00038338,0.0080134,0.21085,0.011575,0.023095,4.0773e-07,0.28,0.96,0
0.017086,-0.0087075,0.026186,0.00030999,0.0079489,0.00034139,0,0,0.047418,-0.019861,0,0.0017752,0,0,0,0.026191,0.00030549,0.0079489,0.75574,0.011482,0.023035,4.0269e-07,0.32,0.96,0
0.018988,-0.0085058,0.026022,-0.00017611,0.0077537,0.00044353,0,0,0.047497,-0.020617,0,0.0023063,0,0,0,0.026029,-0.00018362,0.0077537,0.96964,0.0112,0.023282,4.0335e-07,0.36,0.96,0
0.020886,-0.0083572,0.025929,-0.0003352,0.0076781,0.00020807,0,0,0.047452,-0.020835,0,0.0010819,0,0,0,0.025931,-0.00033685,0.0076781,0.45387,0.011091,0.023317,4.0125e-07,0.4,0.96,0
0.022784,-0.0083679,0.026088,0.00017962,0.0078802,0.00018531,0,0,0.047339,-0.020021,0,0.00096362,0,0,0,0.026089,0.00017829,0.0078802,0.40979,0.011382,0.023046,4.0013e-07,0.44,0.96,0
0.024673,-0.00856,0.026252,0.00018807,0.007932,0.00029094,0,0,0.047632,-0.020134,0,0.0015129,0,0,0,0.026255,0.00018482,0.007932,0.63945,0.011457,0.023189,4.0774e-07,0.48,0.96,0
0.026595,-0.008946,0.02642,-0.00032586,0.0078283,0.00027061,0,0,0.048339,-0.021201,0,0.0014072,0,0,0,0.026423,-0.0003286,0.0078283,0.57963,0.011307,0.023748,4.243e-07,0.52,0.96,0
0.02854,-0.0095353,0.026782,-0.00025838,0.0079571,-7.9616e-07,0,0,0.048945,-0.02136,0,-4.14e-06,0,0,0,0.026782,-0.00025838,0.0079571,-0.001687,0.011494,0.024011,4.4056e-07,0.56,0.96,0
0.03051,-0.010268,0.027086,4.577e-05,0.0081395,-5.455e-05,0,0,0.04926,-0.021044,0,-0.00028366,0,0,0,0.027086,4.566e-05,0.0081395,-0.11559,0.011757,0.024038,4.5029e-07,0.6,0.96,0
0.032481,-0.011045,0.027143,-6.4816e-05,0.0081235,-0.00011683,0,0,0.049451,-0.021289,0,-0.00060753,0,0,0,0.027144,-6.5318e-05,0.0081235,-0.24603,0.011734,0.024178,4.5516e-07,0.64,0.96,0
0.034466,-0.011808,0.027234,-4.0863e-05,0.008158,-0.00014412,0,0,0.049598,-0.021317,0,-0.0007494,0,0,0,0.027235,-4.1625e-05,0.008158,-0.30273,0.011784,0.02424,4.5934e-07,0.68,0.96,0
0.036449,-0.012535,0.027159,-5.8991e-05,0.00813,-0.00019159,0,0,0.049475,-0.021291,0,-0.0009963,0,0,0,0.02716,-6.034e-05,0.00813,-0.40329,0.011743,0.024189,4.5592e-07,0.72,0.96,0
0.038424,-0.013208,0.027026,-4.6954e-05,0.0080938,-0.0002343,0,0,0.049225,-0.021166,0,-0.0012183,0,0,0,0.027028,-4.8981e-05,0.0080938,-0.4958,0.011691,0.024063,4.4911e-07,0.76,0.96,0
0.040387,-0.013815,0.026848,-1.4971e-05,0.0080498,-0.00026069,0,0,0.048875,-0.020969,0,-0.0013556,0,0,0,0.02685,-1.7501e-05,0.0080498,-0.55597,0.011628,0.023879,4.3974e-07,0.8,0.96,0
0.042334,-0.01434,0.026656,2.7834e-05,0.0080051,-0.0002547,0,0,0.048492,-0.020741,0,-0.0013244,0,0,0,0.026658,2.5398e-05,0.0080051,-0.54797,0.011563,0.023674,4.2963e-07,0.84,0.96,0
0.044266,-0.014767,0.026476,6.2365e-05,0.0079614,-0.00021589,0,0,0.048137,-0.020538,0,-0.0011226,0,0,0,0.026477,6.0601e-05,0.0079614,-0.46827,0.0115,0.023485,4.2034e-07,0.88,0.96,0
0.046185,-0.015081,0.026331,8.195e-05,0.007924,-0.00015358,0,0,0.047859,-0.020389,0,-0.00079861,0,0,0,0.026332,8.1051e-05,0.007924,-0.33521,0.011446,0.02334,4.1311e-07,0.92,0.96,0
0.048095,-0.015274,0.026239,8.9845e-05,0.0078987,-7.9048e-05,0,0,0.047685,-0.020303,0,-0.00041105,0,0,0,0.026239,8.9606e-05,0.0078987,-0.1732,0.011409,0.023251,4.0861e-07,0.96,0.96,0
0.05,-0.015339,0.026208,9.1701e-05,0.0078898,-0.00031173,0,0,0.047627,-0.020275,0,-0.001621,0,0,0,0.026211,8.798e-05,0.0078898,-0.68376,0.011396,0.023227,4.0733e-07,1,0.96,0
0,0,0.061043,0.026161,0.026161,-0.01743,0,0,0.090693,0,0,-0.090636,0,0,0,0.06826,0.018945,0.026161,-22.491,0.037789,0.046132,4.6291e-06,0,1,0
0.0036277,-0.0036255,0.043445,0.0029129,0.013907,-0.0070089,0,0,0.076797,-0.028585,0,-0.036446,0,0,0,0.044622,0.0017351,0.013907,-9.5389,0.020088,0.038281,1.9297e-06,0.04,1,0
0.0061438,-0.0056892,0.031724,0.00082737,0.0097655,-0.0022213,0,0,0.057093,-0.023239,0,-0.011551,0,0,0,0.031883,0.00066848,0.0097655,-4.0913,0.014106,0.027806,7.1886e-07,0.08,1,0
0.0081951,-0.007247,0.026576,-0.00063001,0.0077838,-0.0012431,0,0,0.04886,-0.021876,0,-0.0064644,0,0,0,0.026633,-0.0006867,0.0077838,-2.6108,0.011243,0.024222,4.4038e-07,0.12,1,0
0.010053,-0.0083387,0.024491,-0.00075345,0.0071213,-0.00066199,0,0,0.045162,-0.020474,0,-0.0034424,0,0,0,0.024508,-0.0007708,0.0071213,-1.5011,0.010286,0.022401,3.451e-07,0.16,1,0
0.011808,-0.0090584,0.023525,-0.00072601,0.0068395,-0.00033162,0,0,0.043381,-0.019671,0,-0.0017244,0,0,0,0.023529,-0.00073055,0.0068395,-0.78331,0.0098794,0.021499,3.0524e-07,0.2,1,0
0.013523,-0.009455,0.02335,-0.00060828,0.0068224,-6.5167e-05,0,0,0.042971,-0.01932,0,-0.00033887,0,0,0,0.02335,-0.00060846,0.0068224,-0.15585,0.0098546,0.021241,2.9687e-07,0.24,1,0
0.015246,-0.0095778,0.023926,-0.00035615,0.007071,0.00013895,0,0,0.043823,-0.019311,0,0.00072253,0,0,0,0.023927,-0.00035695,0.007071,0.32784,0.010214,0.021552,3.1586e-07,0.28,1,0
0.017029,-0.0094998,0.025061,-0.00014328,0.0074754,0.00031938,0,0,0.045724,-0.019809,0,0.0016608,0,0,0,0.025065,-0.00014733,0.0074754,0.72587,0.010798,0.022396,3.5974e-07,0.32,1,0
0.018904,-0.0093302,0.026443,8.8594e-06,0.0079356,0.00031,0,0,0.04812,-0.020609,0,0.001612,0,0,0,0.026447,5.2244e-06,0.0079356,0.6718,0.011463,0.023502,4.1983e-07,0.36,1,0
0.020878,-0.0092024,0.027678,0.00025165,0.008379,0.00023599,0,0,0.050178,-0.021131,0,0.0012271,0,0,0,0.02768,0.00024962,0.008379,0.49295,0.012103,0.024404,4.7677e-07,0.4,1,0
0.022918,-0.0092169,0.028536,0.0005673,0.008731,0.00012813,0,0,0.051493,-0.021226,0,0.00066626,0,0,0,0.028536,0.00056671,0.008731,0.26247,0.012611,0.024912,5.1608e-07,0.44,1,0
0.024998,-0.0094168,0.028939,0.00063282,0.0088717,0.00012121,0,0,0.052176,-0.021421,0,0.00063027,0,0,0,0.02894,0.0006323,0.0088717,0.24533,0.012815,0.025219,5.3706e-07,0.48,1,0
0.027092,-0.009816,0.028904,0.00043682,0.0088023,1.9985e-05,0,0,0.052265,-0.02175,0,0.00010392,0,0,0,0.028904,0.00043681,0.0088023,0.040224,0.012714,0.025342,5.3918e-07,0.52,1,0
0.029179,-0.010403,0.028504,0.00029167,0.0086387,-6.8295e-05,0,0,0.05165,-0.021702,0,-0.00035514,0,0,0,0.028504,0.00029151,0.0086387,-0.1387,0.012478,0.025102,5.1992e-07,0.56,1,0
0.031224,-0.011122,0.027871,0.00021042,0.0084245,-0.00014327,0,0,0.050562,-0.021357,0,-0.00074503,0,0,0,0.027872,0.00020968,0.0084245,-0.29676,0.012169,0.024606,4.8754e-07,0.6,1,0
0.033224,-0.011891,0.02723,5.9034e-05,0.0081867,-0.00010277,0,0,0.049512,-0.021132,0,-0.00053438,0,0,0,0.02723,5.8645e-05,0.0081867,-0.2167,0.011825,0.024156,4.573e-07,0.64,1,0
0.035185,-0.012651,0.026705,-0.00013352,0.0079715,-0.00010422,0,0,0.048708,-0.021073,0,-0.00054196,0,0,0,0.026706,-0.00013393,0.0079715,-0.22249,0.011515,0.023844,4.3469e-07,0.68,1,0
0.037121,-0.013371,0.026329,-0.0002082,0.0078363,-0.00010522,0,0,0.048082,-0.020916,0,-0.00054714,0,0,0,0.02633,-0.00020862,0.0078363,-0.22717,0.011319,0.023569,4.1786e-07,0.72,1,0
0.039031,-0.014038,0.025956,-0.00026853,0.0077064,-0.00011995,0,0,0.04745,-0.020735,0,-0.00062372,0,0,0,0.025957,-0.00026908,0.0077064,-0.26205,0.011131,0.023286,4.0138e-07,0.76,1,0
0.040917,-0.014636,0.02558,-0.00030323,0.0075829,-0.00012793,0,0,0.046792,-0.020504,0,-0.00066523,0,0,0,0.02558,-0.00030386,0.0075829,-0.28318,0.010953,0.022979,3.8477e-07,0.8,1,0
0.042775,-0.015151,0.025205,-0.00033042,0.0074625,-0.00012376,0,0,0.046132,-0.020262,0,-0.00064357,0,0,0,0.025206,-0.00033102,0.0074625,-0.27768,0.010779,0.022669,3.686e-07,0.84,1,0
0.044607,-0.015568,0.024869,-0.00035346,0.0073546,-0.00010482,0,0,0.045537,-0.020041,0,-0.00054506,0,0,0,0.024869,-0.0003539,0.0073546,-0.2381,0.010623,0.022387,3.5442e-07,0.88,1,0
0.046418,-0.015876,0.024604,-0.00037384,0.0072691,-7.479e-05,0,0,0.045071,-0.019872,0,-0.00038891,0,0,0,0.024604,-0.00037406,0.0072691,-0.17156,0.0105,0.022168,3.4356e-07,0.92,1,0
0.048213,-0.016065,0.024437,-0.00038835,0.0072145,-3.8578e-05,0,0,0.044778,-0.019768,0,-0.0002006,0,0,0,0.024437,-0.00038841,0.0072145,-0.089036,0.010421,0.022031,3.3683e-07,0.96,1,0
0.05,-0.016128,0.02438,-0.00039366,0.0071958,-0.00030503,0,0,0.044678,-0.019733,0,-0.0015861,0,0,0,0.024383,-0.00039742,0.0071958,-0.70532,0.010394,0.02199,3.3476e-07,1,1,0
