"Displacements:0","Displacements:1","Stress/Strain:0","Stress/Strain:1","Stress/Strain:2","Stress/Strain:3","Stress/Strain:4","Stress/Strain:5","Stress/Strain:6","Stress/Strain:7","Stress/Strain:8","Stress/Strain:9","Stress/Strain:10","Stress/Strain:11","Stress/Strain:12","Principal Stress:0","Principal Stress:1","Principal Stress:2","Principal Stress:3","Principal Stress:4","Principal Stress:5","Principal Stress:6","nodes:0","nodes:1","nodes:2"
0,0,0.055649,0.02385,0.02385,0.016412,0,0,0.082679,3.4694e-18,0,0.085342,0,0,0,0.0626,0.016899,0.02385,22.954,0.03445,0.042653,3.6312e-06,0,0,0
0.0033072,0.0034137,0.039178,0.0028002,0.012593,0.0066735,0,0,0.06912,-0.025462,0,0.034702,0,0,0,0.040363,0.0016146,0.012593,10.074,0.01819,0.034592,1.4263e-06,0.04,0,0
0.0055296,0.0053716,0.027726,0.00076989,0.0085488,0.002166,0,0,0.049861,-0.020225,0,0.011263,0,0,0,0.027899,0.00059696,0.0085488,4.5648,0.012348,0.024321,4.8141e-07,0.08,0,0
0.007296,0.0067965,0.022805,-0.00061264,0.0066578,0.0011257,0,0,0.041983,-0.018903,0,0.0058537,0,0,0,0.022859,-0.00066663,0.0066578,2.7458,0.0096168,0.020852,2.7939e-07,0.12,0,0
0.0088882,0.0077191,0.021136,-0.0007175,0.0061256,0.00046616,0,0,0.039027,-0.017792,0,0.0024241,0,0,0,0.021146,-0.00072744,0.0061256,1.2214,0.008848,0.019378,2.2229e-07,0.16,0,0
0.010418,0.0082404,0.020812,-0.00067171,0.0060421,6.7444e-05,0,0,0.038402,-0.017456,0,0.00035071,0,0,0,0.020812,-0.00067192,0.0060421,0.17986,0.0087275,0.019037,2.115e-07,0.2,0,0
0.01196,0.0084324,0.021399,-0.00053428,0.0062596,-0.00021578,0,0,0.039364,-0.017664,0,-0.0011221,0,0,0,0.021402,-0.0005364,0.0062596,-0.5636,0.0090416,0.019452,2.2836e-07,0.24,0,0
0.013567,0.0083743,0.022582,-0.00038385,0.0066594,-0.00039922,0,0,0.041398,-0.018312,0,-0.002076,0,0,0,0.022589,-0.00039079,0.0066594,-0.99559,0.0096192,0.02039,2.6643e-07,0.28,0,0
0.015272,0.0081536,0.024075,-0.00023926,0.0071507,-0.00047566,0,0,0.044003,-0.019214,0,-0.0024734,0,0,0,0.024084,-0.00024856,0.0071507,-1.1203,0.010329,0.021605,3.2061e-07,0.32,0,0
0.017087,0.0078602,0.025585,-0.00010353,0.0076444,-0.00045616,0,0,0.046645,-0.020145,0,-0.002372,0,0,0,0.025593,-0.00011163,0.0076444,-1.017,0.011042,0.022837,3.8232e-07,0.36,0,0
0.019004,0.0075727,0.026865,1.6021e-05,0.0080643,-0.00036644,0,0,0.048882,-0.020925,0,-0.0019055,0,0,0,0.02687,1.1021e-05,0.0080643,-0.78178,0.011648,0.023874,4.4021e-07,0.4,0,0
0.020998,0.0073465,0.027765,9.8706e-05,0.008359,-0.00024978,0,0,0.050454,-0.021477,0,-0.0012989,0,0,0,0.027767,9.6451e-05,0.008359,-0.51725,0.012074,0.024603,4.8417e-07,0.44,0,0
0.02304,0.0072083,0.028259,0.00014112,0.00852,-0.00013701,0,0,0.051321,-0.021785,0,-0.00071245,0,0,0,0.028259,0.00014045,0.00852,-0.27918,0.012307,0.025005,5.0958e-07,0.48,0,0
0.025104,0.0071582,0.028435,0.00015786,0.008578,-6.1953e-05,0,0,0.051629,-0.021892,0,-0.00032216,0,0,0,0.028435,0.00015773,0.008578,-0.12553,0.01239,0.025148,5.1883e-07,0.52,0,0
0.027171,0.0071761,0.028443,0.00015118,0.0085782,-3.4558e-05,0,0,0.051648,-0.02191,0,-0.0001797,0,0,0,0.028443,0.00015114,0.0085782,-0.069987,0.012391,0.02516,5.1937e-07,0.56,0,0
0.029236,0.0072351,0.028429,0.00011841,0.0085643,-4.7131e-05,0,0,0.051649,-0.021959,0,-0.00024508,0,0,0,0.028429,0.00011833,0.0085643,-0.095384,0.012371,0.025174,5.1928e-07,0.6,0,0
0.031302,0.0073134,0.028479,6.7659e-05,0.0085639,-6.7788e-05,0,0,0.051778,-0.02209,0,-0.0003525,0,0,0,0.028479,6.7498e-05,0.0085639,-0.1367,0.01237,0.025259,5.2301e-07,0.64,0,0
0.033378,0.0074,0.028595,1.9324e-05,0.0085843,-7.4578e-05,0,0,0.052028,-0.022269,0,-0.00038781,0,0,0,0.028595,1.913e-05,0.0085843,-0.14953,0.0124,0.025401,5.3041e-07,0.68,0,0
0.035465,0.007493,0.02872,-1.7877e-05,0.0086108,-5.6978e-05,0,0,0.052285,-0.022434,0,-0.00029629,0,0,0,0.028721,-1.799e-05,0.0086108,-0.1136,0.012438,0.025542,5.3817e-07,0.72,0,0
0.037561,0.0075937,0.02879,-4.089e-05,0.0086248,-2.1686e-05,0,0,0.05243,-0.022531,0,-0.00011277,0,0,0,0.02879,-4.0907e-05,0.0086248,-0.043096,0.012458,0.025622,5.4255e-07,0.76,0,0
0.039659,0.0077018,0.028763,-5.4797e-05,0.0086124,1.8683e-05,0,0,0.052391,-0.022535,0,9.715e-05,0,0,0,0.028763,-5.4809e-05,0.0086124,0.037145,0.01244,0.025609,5.4129e-07,0.8,0,0
0.041752,0.0078123,0.02864,-6.3394e-05,0.0085729,5.0432e-05,0,0,0.052174,-0.022454,0,0.00026224,0,0,0,0.02864,-6.3483e-05,0.0085729,0.10067,0.012383,0.025506,5.3455e-07,0.84,0,0
0.043833,0.0079161,0.028456,-6.999e-05,0.0085159,6.4368e-05,0,0,0.051845,-0.022323,0,0.00033471,0,0,0,0.028457,-7.0135e-05,0.0085159,0.12928,0.012301,0.025349,5.245e-07,0.88,0,0
0.0459,0.0080018,0.028268,-7.5723e-05,0.0084575,5.769e-05,0,0,0.051506,-0.022186,0,0.00029999,0,0,0,0.028268,-7.584e-05,0.0084575,0.11662,0.012216,0.025185,5.1423e-07,0.92,0,0
0.047954,0.0080584,0.028127,-8.0012e-05,0.0084143,3.37e-05,0,0,0.051255,-0.022085,0,0.00017524,0,0,0,0.028128,-8.0052e-05,0.0084143,0.068452,0.012154,0.025064,5.0672e-07,0.96,0,0
0.05,0.0080783,0.028076,-8.1639e-05,0.0083984,9.5249e-05,0,0,0.051162,-0.022048,0,0.00049529,0,0,0,0.028077,-8.1961e-05,0.0083984,0.19381,0.012131,0.02502,5.04e-07,1,0,0
0,0,0.033813,0.014491,0.014491,0.011515,0,0,0.050237,-4.3368e-19,0,0.059879,0,0,0,0.039183,0.0091211,0.014491,25.002,0.020932,0.027769,9.6263e-07,0,0.04,0
0.0020095,0.0023952,0.030969,0.0035328,0.010351,0.0074038,0,0,0.053608,-0.017726,0,0.0385,0,0,0,0.03284,0.0016624,0.010351,14.178,0.014951,0.027868,7.5822e-07,0.04,0.04,0
0.0042887,0.0045626,0.031076,0.0028486,0.010178,0.0046079,0,0,0.054337,-0.019055,0,0.023961,0,0,0,0.03181,0.0021155,0.010178,9.0403,0.014701,0.026596,6.7531e-07,0.08,0.04,0
0.0063564,0.0060404,0.028019,0.0016827,0.0089105,0.0024346,0,0,0.049682,-0.018793,0,0.01266,0,0,0,0.028242,0.0014595,0.0089105,5.2374,0.012871,0.023943,4.8165e-07,0.12,0.04,0
0.0082632,0.0070074,0.026027,0.0011287,0.0081467,0.001187,0,0,0.046489,-0.018247,0,0.0061725,0,0,0,0.026083,0.0010723,0.0081467,2.7233,0.011768,0.022331,3.8439e-07,0.16,0.04,0
0.010075,0.0075422,0.024977,0.00082283,0.0077399,0.00032341,0,0,0.044816,-0.017985,0,0.0016817,0,0,0,0.024981,0.0008185,0.0077399,0.76698,0.01118,0.021552,3.4108e-07,0.2,0.04,0
0.011849,0.0077259,0.024623,0.00059329,0.007565,-0.00029609,0,0,0.044352,-0.018126,0,-0.0015397,0,0,0,0.024627,0.00058964,0.007565,-0.70584,0.010927,0.021419,3.3015e-07,0.24,0.04,0
0.013624,0.0076419,0.024751,0.00034966,0.0075301,-0.00070448,0,0,0.044773,-0.018669,0,-0.0036633,0,0,0,0.024771,0.00032934,0.0075301,-1.6523,0.010877,0.021754,3.4006e-07,0.28,0.04,0
0.01543,0.0073851,0.02517,8.4412e-05,0.0075762,-0.0008961,0,0,0.045743,-0.019479,0,-0.0046597,0,0,0,0.025202,5.2442e-05,0.0075762,-2.0433,0.010943,0.022358,3.6255e-07,0.32,0.04,0
0.017283,0.0070544,0.025731,-0.00012263,0.0076826,-0.00088241,0,0,0.046927,-0.020294,0,-0.0045885,0,0,0,0.025761,-0.00015272,0.0076826,-1.9525,0.011097,0.023019,3.9056e-07,0.36,0.04,0
0.019185,0.0067357,0.026313,-0.00022481,0.0078264,-0.00073838,0,0,0.048065,-0.020933,0,-0.0038396,0,0,0,0.026333,-0.00024534,0.0078264,-1.5925,0.011305,0.023602,4.1864e-07,0.4,0.04,0
0.021128,0.0064874,0.026824,-0.00025259,0.0079715,-0.00053345,0,0,0.049017,-0.021383,0,-0.0027739,0,0,0,0.026835,-0.0002631,0.0079715,-1.1282,0.011514,0.024062,4.4324e-07,0.44,0.04,0
0.023106,0.0063369,0.027233,-0.0002182,0.0081044,-0.00033414,0,0,0.049734,-0.021639,0,-0.0017375,0,0,0,0.027237,-0.00022227,0.0081044,-0.69728,0.011706,0.024386,4.6267e-07,0.48,0.04,0
0.025107,0.0062825,0.027555,-0.00011313,0.0082325,-0.00019022,0,0,0.050238,-0.021699,0,-0.00098915,0,0,0,0.027556,-0.00011444,0.0082325,-0.39389,0.011891,0.024584,4.7712e-07,0.52,0.04,0
0.027125,0.0062997,0.027819,5.031e-06,0.0083473,-0.00014253,0,0,0.050627,-0.02169,0,-0.00074114,0,0,0,0.02782,4.3007e-06,0.0083473,-0.29358,0.012057,0.024724,4.8871e-07,0.56,0.04,0
0.029157,0.0063567,0.028052,5.5037e-05,0.0084322,-0.00016267,0,0,0.051013,-0.021781,0,-0.00084586,0,0,0,0.028053,5.4092e-05,0.0084322,-0.33288,0.01218,0.024891,5.0015e-07,0.6,0.04,0
0.031206,0.0064297,0.028279,3.1717e-05,0.0084931,-0.00019764,0,0,0.051442,-0.022,0,-0.0010278,0,0,0,0.02828,3.0334e-05,0.0084931,-0.40087,0.012268,0.025111,5.1284e-07,0.64,0.04,0
0.033273,0.0065092,0.02849,-2.988e-05,0.0085381,-0.00019656,0,0,0.051876,-0.022277,0,-0.0010221,0,0,0,0.028492,-3.1235e-05,0.0085381,-0.39486,0.012333,0.025349,5.2567e-07,0.68,0.04,0
0.035356,0.0065956,0.028668,-8.4004e-05,0.0085751,-0.00014809,0,0,0.052241,-0.022514,0,-0.00077007,0,0,0,0.028669,-8.4767e-05,0.0085751,-0.2951,0.012386,0.025549,5.3658e-07,0.72,0.04,0
0.037452,0.0066925,0.028783,-0.00011085,0.0086017,-6.4754e-05,0,0,0.052472,-0.022652,0,-0.00033672,0,0,0,0.028783,-0.00011099,0.0086017,-0.1284,0.012425,0.025672,5.4356e-07,0.76,0.04,0
0.039554,0.0068004,0.028827,-0.00010161,0.0086175,2.6138e-05,0,0,0.052544,-0.02267,0,0.00013592,0,0,0,0.028827,-0.00010163,0.0086175,0.05177,0.012448,0.025703,5.4584e-07,0.8,0.04,0
0.041655,0.0069141,0.028805,-6.3197e-05,0.0086225,9.6899e-05,0,0,0.052474,-0.022583,0,0.00050387,0,0,0,0.028805,-6.3523e-05,0.0086225,0.19232,0.012455,0.025653,5.4385e-07,0.84,0.04,0
0.043752,0.0070232,0.02874,-1.0767e-05,0.0086186,0.00012888,0,0,0.052314,-0.022436,0,0.00067018,0,0,0,0.02874,-1.1344e-05,0.0086186,0.25684,0.012449,0.025554,5.3913e-07,0.88,0.04,0
0.04584,0.0071144,0.028661,3.916e-05,0.0086101,0.00011697,0,0,0.052133,-0.022284,0,0.00060827,0,0,0,0.028662,3.8682e-05,0.0086101,0.23416,0.012437,0.025444,5.3373e-07,0.92,0.04,0
0.047922,0.007175,0.0286,7.3911e-05,0.0086021,6.8642e-05,0,0,0.051994,-0.022173,0,0.00035694,0,0,0,0.0286,7.3746e-05,0.0086021,0.13787,0.012425,0.025361,5.296e-07,0.96,0.04,0
0.05,0.0071963,0.028577,8.6254e-05,0.0085989,0.00010239,0,0,0.051943,-0.022133,0,0.00053242,0,0,0,0.028577,8.5886e-05,0.0085989,0.2059,0.012421,0.025331,5.2808e-07,1,0.04,0
0,0,0.030702,0.013158,0.013158,0.0095941,0,0,0.045614,-1.301e-18,0,0.049889,0,0,0,0.03493,0.0089301,0.013158,23.782,0.019006,0.024165,6.5056e-07,0,0.08,0
0.0018246,0.0019956,0.029709,0.0084051,0.011434,0.0087093,0,0,0.047515,-0.0078761,0,0.045288,0,0,0,0.032817,0.0052979,0.011434,19.635,0.016516,0.025021,6.4434e-07,0.04,0.08,0
0.0038012,0.0038472,0.029656,0.0044611,0.010235,0.0065165,0,0,0.050493,-0.015012,0,0.033886,0,0,0,0.031241,0.0028754,0.010235,13.676,0.014784,0.025496,6.1813e-07,0.08,0.08,0
0.005864,0.0052931,0.029323,0.0030501,0.0097118,0.0042498,0,0,0.050988,-0.01732,0,0.022099,0,0,0,0.029993,0.0023797,0.0097118,8.9637,0.014028,0.024775,5.5655e-07,0.12,0.08,0
0.0078803,0.0062593,0.028207,0.0021916,0.0091196,0.0024014,0,0,0.049627,-0.018013,0,0.012487,0,0,0,0.028427,0.0019718,0.0091196,5.2299,0.013173,0.023704,4.8017e-07,0.16,0.08,0
0.0098342,0.0068017,0.027205,0.0016615,0.0086599,0.0010083,0,0,0.048217,-0.018196,0,0.0052431,0,0,0,0.027244,0.0016218,0.0086599,2.257,0.012509,0.022929,4.2812e-07,0.2,0.08,0
0.011738,0.0069823,0.026506,0.0012585,0.0083295,-4.4913e-05,0,0,0.04726,-0.018385,0,-0.00023354,0,0,0,0.026507,0.0012584,0.0083295,-0.10192,0.012032,0.02256,4.0027e-07,0.24,0.08,0
0.013615,0.0068808,0.026084,0.00077656,0.0080582,-0.00079531,0,0,0.046867,-0.018932,0,-0.0041356,0,0,0,0.026109,0.00075159,0.0080582,-1.7982,0.01164,0.022608,3.9122e-07,0.28,0.08,0
0.015487,0.0065953,0.025881,0.00021489,0.0078286,-0.0011685,0,0,0.046935,-0.019796,0,-0.0060762,0,0,0,0.025934,0.0001618,0.0078286,-2.6014,0.011308,0.022921,3.9328e-07,0.32,0.08,0
0.01737,0.0062367,0.02586,-0.00018497,0.0077026,-0.0012344,0,0,0.04721,-0.020508,0,-0.0064189,0,0,0,0.025919,-0.00024334,0.0077026,-2.7074,0.011126,0.023231,3.992e-07,0.36,0.08,0
0.019264,0.0058981,0.025997,-0.00031786,0.0077038,-0.0011086,0,0,0.047563,-0.020856,0,-0.0057649,0,0,0,0.026044,-0.00036449,0.0077038,-2.4082,0.011128,0.02344,4.0696e-07,0.4,0.08,0
0.021175,0.0056359,0.026228,-0.00037879,0.0077548,-0.00093336,0,0,0.048031,-0.021147,0,-0.0048535,0,0,0,0.026261,-0.00041149,0.0077548,-2.0066,0.011201,0.02367,4.1792e-07,0.44,0.08,0
0.023106,0.0054773,0.026528,-0.00039383,0.0078401,-0.00070187,0,0,0.048587,-0.021408,0,-0.0036497,0,0,0,0.026546,-0.00041211,0.0078401,-1.4924,0.011325,0.023924,4.3162e-07,0.48,0.08,0
0.025062,0.0054223,0.026907,-0.00021227,0.0080084,-0.00052238,0,0,0.049136,-0.021374,0,-0.0027164,0,0,0,0.026917,-0.00022233,0.0080084,-1.1031,0.011568,0.024102,4.4661e-07,0.52,0.08,0
0.027037,0.0054409,0.027322,3.2544e-05,0.0082062,-0.0004529,0,0,0.0497,-0.021252,0,-0.0023551,0,0,0,0.027329,2.503e-05,0.0082062,-0.95056,0.011853,0.024271,4.6291e-07,0.56,0.08,0
0.029038,0.0054926,0.027731,0.0001104,0.0083523,-0.00049624,0,0,0.050383,-0.021429,0,-0.0025805,0,0,0,0.027739,0.00010149,0.0083523,-1.029,0.012064,0.024574,4.8264e-07,0.6,0.08,0
0.031068,0.0055534,0.028115,1.8728e-05,0.0084401,-0.00051577,0,0,0.051155,-0.021896,0,-0.002682,0,0,0,0.028124,9.2634e-06,0.0084401,-1.0513,0.012191,0.02499,5.0483e-07,0.64,0.08,0
0.03313,0.0056178,0.028474,-0.00010106,0.0085118,-0.00047084,0,0,0.051901,-0.022394,0,-0.0024484,0,0,0,0.028482,-0.00010881,0.0085118,-0.94374,0.012295,0.025402,5.2664e-07,0.68,0.08,0
0.03522,0.0056919,0.028746,-0.00021339,0.0085599,-0.00034623,0,0,0.052485,-0.022811,0,-0.0018004,0,0,0,0.02875,-0.00021753,0.0085599,-0.68487,0.012364,0.025728,5.4383e-07,0.72,0.08,0
0.037329,0.0057815,0.02893,-0.0002621,0.0086003,-0.000171,0,0,0.052857,-0.023042,0,-0.00088918,0,0,0,0.028931,-0.0002631,0.0086003,-0.3356,0.012423,0.025925,5.5502e-07,0.76,0.08,0
0.039448,0.0058882,0.029024,-0.00023365,0.0086371,8.5174e-06,0,0,0.053006,-0.023064,0,4.429e-05,0,0,0,0.029024,-0.00023365,0.0086371,0.01668,0.012476,0.025984,5.598e-07,0.8,0.08,0
0.04157,0.0060057,0.029045,-0.00014356,0.0086706,0.00014469,0,0,0.052975,-0.022917,0,0.00075239,0,0,0,0.029046,-0.00014428,0.0086706,0.28401,0.012524,0.025932,5.5926e-07,0.84,0.08,0
0.043686,0.0061212,0.029019,-2.6975e-05,0.0086977,0.00020773,0,0,0.052836,-0.022684,0,0.0010802,0,0,0,0.029021,-2.846e-05,0.0086977,0.40974,0.012563,0.025817,5.5544e-07,0.88,0.08,0
0.045796,0.0062191,0.028975,8.0632e-05,0.0087166,0.00019218,0,0,0.052671,-0.022454,0,0.00099933,0,0,0,0.028976,7.9354e-05,0.0087166,0.38106,0.012591,0.025691,5.5066e-07,0.92,0.08,0
0.0479,0.0062846,0.028937,0.00015406,0.0087272,0.00011338,0,0,0.052545,-0.02229,0,0.00058956,0,0,0,0.028937,0.00015361,0.0087272,0.22568,0.012606,0.025597,5.4692e-07,0.96,0.08,0
0.05,0.0063076,0.028922,0.00017984,0.0087306,0.00011079,0,0,0.052498,-0.022232,0,0.00057612,0,0,0,0.028923,0.00017941,0.0087306,0.22085,0.012611,0.025564,5.4556e-07,1,0.08,0
0,0,0.030042,0.012875,0.012875,0.008486,0,0,0.044634,-1.7347e-18,0,0.044127,0,0,0,0.033529,0.0093884,0.012875,22.337,0.018597,0.0226,5.4555e-07,0,0.12,0
0.0017853,0.0017651,0.029686,0.0099407,0.011888,0.0080762,0,0,0.046275,-0.0050629,0,0.041996,0,0,0,0.032569,0.0070582,0.011888,19.642,0.017172,0.023471,5.7045e-07,0.04,0.12,0
0.003702,0.0033616,0.029946,0.0069439,0.011067,0.006837,0,0,0.049086,-0.01072,0,0.035553,0,0,0,0.031825,0.0050652,0.011067,15.365,0.015986,0.024321,5.8992e-07,0.08,0.12,0
0.0057122,0.0046548,0.029896,0.0048272,0.010417,0.0050988,0,0,0.050646,-0.014534,0,0.026514,0,0,0,0.030894,0.0038299,0.010417,11.068,0.015047,0.024445,5.7062e-07,0.12,0.12,0
0.0077537,0.0055664,0.029441,0.0036362,0.0099232,0.0033698,0,0,0.050747,-0.016346,0,0.017523,0,0,0,0.029874,0.0032034,0.0099232,7.3187,0.014334,0.024026,5.2892e-07,0.16,0.12,0
0.009772,0.0060865,0.02867,0.0028403,0.0094529,0.0018711,0,0,0.049963,-0.017193,0,0.0097298,0,0,0,0.028804,0.0027054,0.0094529,4.122,0.013654,0.023464,4.832e-07,0.2,0.12,0
0.011751,0.0062551,0.027739,0.0020982,0.0089511,0.00064721,0,0,0.048848,-0.017818,0,0.0033655,0,0,0,0.027755,0.0020819,0.0089511,1.445,0.012929,0.023021,4.4362e-07,0.24,0.12,0
0.01368,0.0061273,0.026989,0.0014725,0.0085385,-0.00022427,0,0,0.047972,-0.018372,0,-0.0011662,0,0,0,0.026991,0.0014705,0.0085385,-0.50354,0.012333,0.022823,4.1896e-07,0.28,0.12,0
0.015588,0.0058014,0.026188,0.00041548,0.007981,-0.00081638,0,0,0.047338,-0.019671,0,-0.0042451,0,0,0,0.026214,0.00038964,0.007981,-1.8125,0.011528,0.022989,4.0231e-07,0.32,0.12,0
0.017467,0.0054138,0.025538,-0.00027899,0.0075777,-0.00091153,0,0,0.046697,-0.020427,0,-0.0047399,0,0,0,0.02557,-0.00031113,0.0075777,-2.0196,0.010946,0.022976,3.8442e-07,0.36,0.12,0
0.019324,0.0050672,0.025329,-9.5753e-05,0.0075701,-0.0010693,0,0,0.046174,-0.019931,0,-0.0055606,0,0,0,0.025374,-0.00014065,0.0075701,-2.4041,0.010934,0.022666,3.7306e-07,0.4,0.12,0
0.021161,0.0047956,0.025342,-0.00021735,0.0075373,-0.0012457,0,0,0.046292,-0.020162,0,-0.0064776,0,0,0,0.025402,-0.00027791,0.0075373,-2.7837,0.010887,0.0228,3.7643e-07,0.44,0.12,0
0.023027,0.0046243,0.025577,-0.00066157,0.0074745,-0.0012576,0,0,0.047065,-0.021154,0,-0.0065398,0,0,0,0.025637,-0.00072171,0.0074745,-2.738,0.010797,0.023365,3.9372e-07,0.48,0.12,0
0.024926,0.0045726,0.026215,-0.00034788,0.0077603,-0.0010375,0,0,0.047984,-0.021081,0,-0.0053952,0,0,0,0.026256,-0.00038835,0.0077603,-2.2334,0.011209,0.023647,4.1732e-07,0.52,0.12,0
0.026866,0.0045995,0.026924,0.00012785,0.0081157,-0.0010561,0,0,0.048903,-0.020768,0,-0.0054916,0,0,0,0.026966,8.6293e-05,0.0081157,-2.2534,0.011723,0.023899,4.436e-07,0.56,0.12,0
0.028838,0.0046424,0.027493,4.8007e-05,0.0082622,-0.0010274,0,0,0.049999,-0.021357,0,-0.0053425,0,0,0,0.027531,9.599e-06,0.0082622,-2.1409,0.011934,0.024463,4.7355e-07,0.6,0.12,0
0.030866,0.0046781,0.028145,-3.1702e-05,0.0084341,-0.00098449,0,0,0.051249,-0.022011,0,-0.0051194,0,0,0,0.02818,-6.6058e-05,0.0084341,-1.9986,0.012183,0.025099,5.0926e-07,0.64,0.12,0
0.032938,0.0047177,0.028614,-0.00025623,0.0085072,-0.00084077,0,0,0.052277,-0.022785,0,-0.004372,0,0,0,0.028638,-0.0002807,0.0085072,-1.6667,0.012288,0.025678,5.3874e-07,0.68,0.12,0
0.035048,0.0047708,0.028972,-0.00044724,0.0085574,-0.00060909,0,0,0.053078,-0.023412,0,-0.0031673,0,0,0,0.028985,-0.00045985,0.0085574,-1.1856,0.012361,0.02613,5.6203e-07,0.72,0.12,0
0.037184,0.0048491,0.029203,-0.00052672,0.008603,-0.00031734,0,0,0.053561,-0.023737,0,-0.0016502,0,0,0,0.029207,-0.00053011,0.008603,-0.61149,0.012427,0.026384,5.7639e-07,0.76,0.12,0
0.039333,0.0049552,0.029324,-0.00045593,0.0086606,-3.611e-05,0,0,0.053726,-0.023703,0,-0.00018777,0,0,0,0.029325,-0.00045598,0.0086606,-0.069473,0.01251,0.026429,5.8185e-07,0.8,0.12,0
0.041482,0.0050808,0.029357,-0.0002742,0.0087249,0.00016885,0,0,0.053644,-0.023398,0,0.00087802,0,0,0,0.029358,-0.00027516,0.0087249,0.32648,0.012603,0.026314,5.8015e-07,0.84,0.12,0
0.043625,0.0052084,0.029336,-5.2472e-05,0.0087849,0.00026253,0,0,0.053431,-0.022977,0,0.0013651,0,0,0,0.029338,-5.4817e-05,0.0087849,0.51178,0.012689,0.02612,5.7438e-07,0.88,0.12,0
0.045757,0.0053181,0.029294,0.00014459,0.0088316,0.00024555,0,0,0.053203,-0.022586,0,0.0012768,0,0,0,0.029296,0.00014252,0.0088316,0.48259,0.012757,0.025925,5.6781e-07,0.92,0.12,0
0.047881,0.0053918,0.029259,0.0002754,0.0088604,0.00014485,0,0,0.053037,-0.022321,0,0.0007532,0,0,0,0.02926,0.00027468,0.0088604,0.28632,0.012798,0.025788,5.6291e-07,0.96,0.12,0
0.05,0.0054178,0.029246,0.00032084,0.0088701,0.0001248,0,0,0.052978,-0.022228,0,0.00064896,0,0,0,0.029247,0.0003203,0.0088701,0.2472,0.012812,0.025739,5.6117e-07,1,0.12,0
0,0,0.030669,0.013144,0.013144,0.0076468,0,0,0.045566,1.0842e-18,0,0.039764,0,0,0,0.033537,0.010276,0.013144,20.555,0.018986,0.021967,5.133e-07,0,0.16,0
0.0018226,0.0015905,0.0304,0.010745,0.012344,0.0074511,0,0,0.046947,-0.0041552,0,0.038746,0,0,0,0.032905,0.0082401,0.012344,18.585,0.01783,0.022891,5.4992e-07,0.04,0.16,0
0.0037557,0.0029896,0.030786,0.008407,0.011758,0.0065776,0,0,0.049472,-0.0087119,0,0.034204,0,0,0,0.032576,0.0066169,0.011758,15.225,0.016983,0.023808,5.8566e-07,0.08,0.16,0
0.0057804,0.0041304,0.03089,0.0064591,0.011205,0.0053856,0,0,0.051182,-0.012339,0,0.028005,0,0,0,0.032025,0.0053246,0.011205,11.896,0.016185,0.0243,5.9399e-07,0.12,0.16,0
0.0078503,0.0049516,0.03065,0.0051147,0.010729,0.0040292,0,0,0.051793,-0.014598,0,0.020952,0,0,0,0.03127,0.004494,0.010729,8.7574,0.015498,0.024267,5.7385e-07,0.16,0.16,0
0.0099239,0.0054262,0.030007,0.0040586,0.01022,0.0026928,0,0,0.051447,-0.016019,0,0.014003,0,0,0,0.030284,0.0037821,0.01022,5.8627,0.014762,0.023941,5.3671e-07,0.2,0.16,0
0.011966,0.0055569,0.029157,0.0031039,0.0096784,0.0016389,0,0,0.050645,-0.017094,0,0.008522,0,0,0,0.02926,0.0030013,0.0096784,3.5853,0.01398,0.023638,5.0032e-07,0.24,0.16,0
0.013976,0.0054111,0.02742,0.0015634,0.0086949,0.00082645,0,0,0.048684,-0.018542,0,0.0042975,0,0,0,0.027446,0.001537,0.0086949,1.8289,0.012559,0.023175,4.3966e-07,0.28,0.16,0
0.015861,0.0050217,0.025982,0.00053766,0.0079559,0.00092993,0,0,0.046868,-0.019287,0,0.0048357,0,0,0,0.026016,0.00050372,0.0079559,2.0903,0.011492,0.022722,3.9128e-07,0.32,0.16,0
0.017725,0.0046025,0.024806,0.00057011,0.007613,6.7007e-05,0,0,0.044703,-0.018311,0,0.00034844,0,0,0,0.024807,0.00056992,0.007613,0.15841,0.010996,0.021594,3.3781e-07,0.36,0.16,0
0.019437,0.0043036,0.023424,0.00057437,0.0071995,-0.00067264,0,0,0.042183,-0.017225,0,-0.0034977,0,0,0,0.023444,0.00055459,0.0071995,-1.6847,0.010399,0.020395,2.849e-07,0.4,0.16,0
0.0211,0.0040229,0.023307,0.00039232,0.0071097,-0.0015537,0,0,0.042112,-0.017465,0,-0.0080795,0,0,0,0.023412,0.00028744,0.0071097,-3.8615,0.01027,0.020579,2.8742e-07,0.44,0.16,0
0.022806,0.003785,0.024384,-8.2749e-05,0.0072903,-0.002123,0,0,0.044443,-0.01917,0,-0.01104,0,0,0,0.024567,-0.00026561,0.0072903,-4.9227,0.01053,0.022048,3.4043e-07,0.48,0.16,0
0.024655,0.0037358,0.025295,-0.00062421,0.0074012,-0.0026024,0,0,0.046524,-0.020866,0,-0.013532,0,0,0,0.025554,-0.00088291,0.0074012,-5.6772,0.010691,0.02342,3.9233e-07,0.52,0.16,0
0.026528,0.0037794,0.026416,-0.00049292,0.0077769,-0.001895,0,0,0.048462,-0.021502,0,-0.0098542,0,0,0,0.026549,-0.00062572,0.0077769,-4.0086,0.011233,0.024098,4.3528e-07,0.56,0.16,0
0.028532,0.0037841,0.02785,2.7643e-08,0.0083549,-0.0017444,0,0,0.050686,-0.021723,0,-0.0090708,0,0,0,0.027959,-0.00010881,0.0083549,-3.5702,0.012068,0.024937,4.9818e-07,0.6,0.16,0
0.030583,0.0037925,0.02846,-0.00019302,0.0084802,-0.0015116,0,0,0.051949,-0.02255,0,-0.0078602,0,0,0,0.02854,-0.00027254,0.0084802,-3.0114,0.012249,0.025585,5.3308e-07,0.64,0.16,0
0.032688,0.003795,0.028996,-0.0004889,0.008552,-0.0012745,0,0,0.053153,-0.023506,0,-0.0066276,0,0,0,0.029051,-0.00054389,0.008552,-2.4706,0.012353,0.026256,5.6752e-07,0.68,0.16,0
0.034835,0.0038189,0.029353,-0.00081576,0.0085613,-0.00091021,0,0,0.054059,-0.02438,0,-0.0047331,0,0,0,0.029381,-0.0008432,0.0085613,-1.7265,0.012366,0.02679,5.9295e-07,0.72,0.16,0
0.037012,0.0038825,0.029596,-0.00092042,0.0086027,-0.00047672,0,0,0.054583,-0.02476,0,-0.002479,0,0,0,0.029604,-0.00092786,0.0086027,-0.89476,0.012426,0.027056,6.0812e-07,0.76,0.16,0
0.039202,0.003992,0.029711,-0.00076995,0.0086824,-7.699e-05,0,0,0.054675,-0.024576,0,-0.00040035,0,0,0,0.029712,-0.00077014,0.0086824,-0.14472,0.012541,0.027025,6.1154e-07,0.8,0.16,0
0.041387,0.0041338,0.029729,-0.00044751,0.0087846,0.00019989,0,0,0.054457,-0.024003,0,0.0010394,0,0,0,0.029731,-0.00044884,0.0087846,0.3795,0.012689,0.026784,6.0609e-07,0.84,0.16,0
0.043558,0.004283,0.029695,-8.065e-05,0.0088842,0.0003174,0,0,0.054108,-0.023309,0,0.0016505,0,0,0,0.029698,-8.4033e-05,0.0088842,0.61067,0.012833,0.026464,5.9642e-07,0.88,0.16,0
0.045715,0.0044122,0.029647,0.00022767,0.0089623,0.00029357,0,0,0.053779,-0.02271,0,0.0015266,0,0,0,0.029649,0.00022474,0.0089623,0.57168,0.012946,0.026174,5.8685e-07,0.92,0.16,0
0.047861,0.0044989,0.029611,0.0004256,0.009011,0.00017099,0,0,0.05356,-0.022322,0,0.00088916,0,0,0,0.029612,0.0004246,0.009011,0.33567,0.013016,0.025981,5.8027e-07,0.96,0.16,0
0.05,0.0045294,0.029598,0.0004925,0.0090272,0.00014653,0,0,0.053484,-0.02219,0,0.00076198,0,0,0,0.029599,0.00049177,0.0090272,0.28845,0.013039,0.025916,5.7801e-07,1,0.16,0
0,0,0.031894,0.013669,0.013669,0.0068879,0,0,0.047386,0,0,0.035817,0,0,0,0.034205,0.011359,0.013669,18.542,0.019744,0.021783,5.1077e-07,0,0.2,0
0.0018954,0.0014327,0.03164,0.011353,0.012898,0.0068006,0,0,0.04873,-0.0040165,0,0.035363,0,0,0,0.033709,0.0092845,0.012898,16.92,0.018631,0.022833,5.6012e-07,0.04,0.2,0
0.0038984,0.0026647,0.032125,0.0093301,0.012436,0.0061768,0,0,0.051189,-0.0080763,0,0.032119,0,0,0,0.033691,0.007764,0.012436,14.228,0.017964,0.023935,6.1476e-07,0.08,0.2,0
0.0059906,0.0036677,0.032341,0.0075834,0.011977,0.005398,0,0,0.052945,-0.011424,0,0.02807,0,0,0,0.033467,0.0064577,0.011977,11.78,0.017301,0.024716,6.4698e-07,0.12,0.2,0
0.008134,0.0043985,0.032207,0.0062978,0.011551,0.004446,0,0,0.053704,-0.013659,0,0.023119,0,0,0,0.032948,0.0055561,0.011551,9.4712,0.016685,0.024941,6.4428e-07,0.16,0.2,0
0.010287,0.004805,0.031937,0.0053913,0.011199,0.0034164,0,0,0.05392,-0.015099,0,0.017765,0,0,0,0.03237,0.0049586,0.011199,7.2172,0.016176,0.024885,6.2686e-07,0.2,0.2,0
0.012448,0.0048876,0.030919,0.0036836,0.010381,0.0024233,0,0,0.0534,-0.017413,0,0.012601,0,0,0,0.031133,0.0034697,0.010381,5.045,0.014995,0.024937,5.9499e-07,0.24,0.2,0
0.014559,0.0046439,0.030811,0.0024019,0.009964,0.0024138,0,0,0.054203,-0.019661,0,0.012552,0,0,0,0.031015,0.0021982,0.009964,4.8221,0.014392,0.025825,6.2239e-07,0.28,0.2,0
0.016784,0.0042584,0.033503,0.00096669,0.010341,0.001856,0,0,0.042358,-0.016653,0,0.0074349,0,0,0,0.033617,0.00085197,0.010341,3.456,0.014937,0.029205,9.201e-07,0.32,0.2,0
0.018213,0.0039489,0.029761,0.0011706,0.0092795,0.00074884,0,0,0.035501,-0.014627,0,0.0032179,0,0,0,0.029788,0.0011431,0.0092795,1.8001,0.013404,0.025576,7.641e-07,0.36,0.2,0
0.019624,0.0036891,0.029551,0.0011605,0.0092135,-0.00033871,0,0,0.035252,-0.014309,0,-0.0014326,0,0,0,0.029557,0.001155,0.0092135,-0.81852,0.013308,0.025355,7.4765e-07,0.4,0.2,0
0.021033,0.0033984,0.029328,0.00094524,0.009082,-0.0015066,0,0,0.035093,-0.014481,0,-0.0062029,0,0,0,0.029428,0.00084551,0.009082,-3.5187,0.013118,0.025487,7.4265e-07,0.44,0.2,0
0.022431,0.0030907,0.029223,0.00049779,0.0089164,-0.0023954,0,0,0.035199,-0.015283,0,-0.010116,0,0,0,0.029483,0.00023774,0.0089164,-5.5017,0.012879,0.02603,7.5546e-07,0.48,0.2,0
0.023849,0.0029033,0.032352,-0.00081403,0.0094615,-0.0031383,0,0,0.041797,-0.01824,0,-0.012289,0,0,0,0.032662,-0.0011236,0.0094615,-5.6153,0.013667,0.029936,8.9789e-07,0.52,0.2,0
0.02603,0.0028794,0.029048,-0.00033859,0.0086128,-0.0029753,0,0,0.053132,-0.023274,0,-0.015472,0,0,0,0.029346,-0.00063681,0.0086128,-5.7237,0.012441,0.026593,5.8679e-07,0.56,0.2,0
0.028099,0.0029046,0.028644,-0.00042053,0.0084669,-0.0021741,0,0,0.052459,-0.023107,0,-0.011305,0,0,0,0.028805,-0.00058226,0.0084669,-4.2544,0.01223,0.026069,5.5411e-07,0.6,0.2,0
0.030226,0.0028741,0.029317,-0.00021574,0.0087304,-0.0019892,0,0,0.053526,-0.02326,0,-0.010344,0,0,0,0.029451,-0.00034912,0.0087304,-3.8361,0.012611,0.026455,5.8715e-07,0.64,0.2,0
0.032382,0.0028372,0.029555,-0.00084152,0.0086142,-0.0016759,0,0,0.054447,-0.024585,0,-0.0087146,0,0,0,0.029648,-0.00093364,0.0086142,-3.1462,0.012443,0.0271,6.1092e-07,0.68,0.2,0
0.034582,0.0028204,0.029867,-0.0013279,0.0085618,-0.0011939,0,0,0.055394,-0.025713,0,-0.0062085,0,0,0,0.029913,-0.0013735,0.0085618,-2.1886,0.012367,0.027689,6.3609e-07,0.72,0.2,0
0.036813,0.0028683,0.030064,-0.0014483,0.0085847,-0.0006135,0,0,0.055846,-0.026086,0,-0.0031902,0,0,0,0.030076,-0.0014603,0.0085847,-1.1149,0.0124,0.027904,6.4813e-07,0.76,0.2,0
0.03905,0.0029891,0.030139,-0.0011733,0.0086899,-9.2366e-05,0,0,0.055769,-0.025644,0,-0.0004803,0,0,0,0.03014,-0.0011736,0.0086899,-0.16901,0.012552,0.02773,6.4645e-07,0.8,0.2,0
0.041275,0.0031605,0.030139,-0.00064678,0.0088476,0.00024175,0,0,0.055357,-0.024685,0,0.0012571,0,0,0,0.030141,-0.00064868,0.0088476,0.4499,0.01278,0.027309,6.3563e-07,0.84,0.2,0
0.043478,0.0033437,0.030099,-0.00010028,0.0089996,0.00036828,0,0,0.054859,-0.02366,0,0.001915,0,0,0,0.030104,-0.00010477,0.0089996,0.69858,0.013,0.02684,6.2161e-07,0.88,0.2,0
0.045663,0.0035013,0.030062,0.00033005,0.0091175,0.00032668,0,0,0.054455,-0.022847,0,0.0016987,0,0,0,0.030065,0.00032646,0.0091175,0.62945,0.01317,0.026462,6.0968e-07,0.92,0.2,0
0.047835,0.0036061,0.030039,0.00059148,0.009189,0.00018668,0,0,0.054209,-0.022354,0,0.00097072,0,0,0,0.03004,0.0005903,0.009189,0.3632,0.013273,0.026229,6.0216e-07,0.96,0.2,0
0.05,0.0036426,0.030034,0.00068134,0.0092146,0.00017553,0,0,0.05413,-0.022186,0,0.00091277,0,0,0,0.030035,0.00068029,0.0092146,0.34262,0.01331,0.026153,5.998e-07,1,0.2,0
0,0,0.033435,0.014329,0.014329,0.006102,0,0,0.049675,2.1684e-19,0,0.031731,0,0,0,0.035217,0.012547,0.014329,16.285,0.020698,0.021834,5.2261e-07,0,0.24,0
0.001987,0.0012692,0.033169,0.011844,0.013504,0.0060824,0,0,0.051129,-0.004315,0,0.031628,0,0,0,0.034782,0.010231,0.013504,14.851,0.019506,0.023089,5.8956e-07,0.04,0.24,0
0.0040903,0.0023435,0.033823,0.0099269,0.013125,0.0056372,0,0,0.053815,-0.0083149,0,0.029313,0,0,0,0.035086,0.0086639,0.013125,12.629,0.018958,0.024498,6.7151e-07,0.08,0.24,0
0.0062922,0.0032165,0.034279,0.0083159,0.012779,0.0051685,0,0,0.055902,-0.011603,0,0.026876,0,0,0,0.035271,0.0073249,0.012779,10.855,0.018458,0.025657,7.3707e-07,0.12,0.24,0
0.0085625,0.0038589,0.034383,0.00709,0.012442,0.0046149,0,0,0.057047,-0.013915,0,0.023997,0,0,0,0.035142,0.0063308,0.012442,9.3421,0.017972,0.026294,7.6637e-07,0.16,0.24,0
0.010856,0.0042183,0.034082,0.0062416,0.012097,0.0038115,0,0,0.05716,-0.015224,0,0.01982,0,0,0,0.034594,0.0057292,0.012097,7.6566,0.017473,0.026266,7.4955e-07,0.2,0.24,0
0.013135,0.0041639,0.034864,0.005182,0.012014,0.0032488,0,0,0.059411,-0.017763,0,0.016894,0,0,0,0.035216,0.0048306,0.012014,6.1738,0.017354,0.027506,8.2815e-07,0.24,0.24,0
0.015609,0.0038382,0.039313,0.0031598,0.012742,0.0023829,0,0,0.048311,-0.017114,0,0.0096673,0,0,0,0.039488,0.0029853,0.012742,4.029,0.018405,0.032735,1.427e-06,0.28,0.24,0
0.017271,0.0036409,0.031392,0.0014911,0.009865,0.00083201,0,0,0.038372,-0.014746,0,0.0039728,0,0,0,0.031437,0.0014461,0.009865,2.0154,0.014249,0.026793,7.9908e-07,0.32,0.24,0
0.018552,0.0034324,0.036445,0.001635,0.011424,0.00039291,0,0,0.032527,-0.012726,0,0.0010216,0,0,0,0.03645,0.0016306,0.011424,0.6466,0.016501,0.031101,1.0443e-06,0.36,0.24,0
0.019873,0.0031588,0.037173,0.0017948,0.01169,-0.00027085,0,0,0.033127,-0.012864,0,-0.00070422,0,0,0,0.037175,0.0017927,0.01169,-0.43862,0.016886,0.031617,1.1032e-06,0.4,0.24,0
0.021202,0.0028644,0.036596,0.0014512,0.011414,-0.00075139,0,0,0.032736,-0.012952,0,-0.0019536,0,0,0,0.036612,0.0014352,0.011414,-1.2242,0.016487,0.0314,1.0655e-06,0.44,0.24,0
0.022492,0.0025623,0.034743,0.00054824,0.010587,-0.0012989,0,0,0.031402,-0.013051,0,-0.0033772,0,0,0,0.034792,0.00049897,0.010587,-2.1723,0.015293,0.030526,9.4117e-07,0.48,0.24,0
0.023714,0.0022251,0.028994,-0.00052745,0.0085399,-0.0015117,0,0,0.036433,-0.016026,0,-0.0066966,0,0,0,0.029108,-0.00064169,0.0085399,-3.4642,0.012335,0.026386,6.8273e-07,0.52,0.24,0
0.025289,0.0019175,0.035692,-0.00065307,0.010512,-0.0023445,0,0,0.045782,-0.020023,0,-0.0095478,0,0,0,0.035861,-0.00082226,0.010512,-3.9507,0.015183,0.032533,1.1962e-06,0.56,0.24,0
0.027633,0.0019355,0.031081,-0.00013426,0.009284,-0.0024227,0,0,0.056672,-0.024487,0,-0.012598,0,0,0,0.031268,-0.00032117,0.009284,-4.4116,0.01341,0.028048,7.0154e-07,0.6,0.24,0
0.029823,0.0019317,0.030147,-0.00035437,0.0089378,-0.002122,0,0,0.055144,-0.02416,0,-0.011034,0,0,0,0.030294,-0.00050129,0.0089378,-3.9606,0.01291,0.027327,6.4213e-07,0.64,0.24,0
0.032044,0.0018283,0.03026,-0.0012645,0.0086985,-0.0018953,0,0,0.056059,-0.025904,0,-0.0098557,0,0,0,0.030373,-0.001378,0.0086985,-3.4283,0.012565,0.028102,6.6557e-07,0.68,0.24,0
0.034307,0.0017619,0.030407,-0.0018749,0.0085595,-0.0013745,0,0,0.056802,-0.027129,0,-0.0071477,0,0,0,0.030465,-0.0019333,0.0085595,-2.4338,0.012364,0.028632,6.8263e-07,0.72,0.24,0
0.036589,0.0017957,0.030455,-0.002076,0.0085137,-0.00071015,0,0,0.057047,-0.027533,0,-0.0036928,0,0,0,0.03047,-0.0020915,0.0085137,-1.25,0.012297,0.028765,6.8604e-07,0.76,0.24,0
0.038871,0.0019404,0.030499,-0.001657,0.0086525,-0.00011862,0,0,0.0568,-0.026805,0,-0.0006168,0,0,0,0.030499,-0.0016575,0.0086525,-0.21135,0.012498,0.02844,6.7944e-07,0.8,0.24,0
0.041133,0.002159,0.03054,-0.00084713,0.008908,0.00025976,0,0,0.056244,-0.025363,0,0.0013508,0,0,0,0.030543,-0.00084928,0.008908,0.47414,0.012867,0.027827,6.6552e-07,0.84,0.24,0
0.043371,0.0023902,0.030565,-9.6126e-05,0.0091405,0.00035922,0,0,0.055702,-0.024015,0,0.0018679,0,0,0,0.030569,-0.00010033,0.0091405,0.67115,0.013203,0.02725,6.5073e-07,0.88,0.24,0
0.045589,0.0025844,0.030581,0.00042197,0.009301,0.00031358,0,0,0.055329,-0.023085,0,0.0016306,0,0,0,0.030585,0.00041871,0.009301,0.59565,0.013435,0.02685,6.398e-07,0.92,0.24,0
0.047797,0.0027106,0.030621,0.00075619,0.0094132,0.0001758,0,0,0.055141,-0.022508,0,0.00091418,0,0,0,0.030622,0.00075516,0.0094132,0.33726,0.013597,0.026616,6.3421e-07,0.96,0.24,0
0.05,0.0027545,0.030631,0.00086365,0.0094485,0.00021087,0,0,0.055075,-0.022321,0,0.0010965,0,0,0,0.030633,0.00086215,0.0094485,0.40586,0.013648,0.02654,6.323e-07,1,0.24,0
0,0,0.035038,0.015016,0.015016,0.0052283,0,0,0.052056,-1.0842e-18,0,0.027187,0,0,0,0.036321,0.013733,0.015016,13.788,0.02169,0.021974,5.387e-07,0,0.28,0
0.0020822,0.0010875,0.034755,0.012246,0.0141,0.0052394,0,0,0.053702,-0.0048211,0,0.027245,0,0,0,0.035915,0.011086,0.0141,12.482,0.020367,0.023467,6.2699e-07,0.04,0.28,0
0.0042962,0.0019995,0.035626,0.010323,0.013785,0.0049093,0,0,0.056788,-0.0090007,0,0.025528,0,0,0,0.036545,0.0094038,0.013785,10.604,0.019911,0.025238,7.4245e-07,0.08,0.28,0
0.0066253,0.0027394,0.036435,0.008801,0.013571,0.0046061,0,0,0.059447,-0.012402,0,0.023952,0,0,0,0.037183,0.0080534,0.013571,9.2182,0.019602,0.0268,8.4909e-07,0.12,0.28,0
0.009052,0.0032853,0.037287,0.0078001,0.013526,0.0042333,0,0,0.061778,-0.014887,0,0.022013,0,0,0,0.037882,0.0072043,0.013526,8.0103,0.019538,0.028057,9.4306e-07,0.16,0.28,0
0.011567,0.0035871,0.038396,0.0074221,0.013746,0.0034888,0,0,0.064092,-0.016441,0,0.018142,0,0,0,0.038784,0.007034,0.013746,6.3476,0.019855,0.028983,1.028e-06,0.2,0.28,0
0.014179,0.0034666,0.044215,0.0062836,0.01515,0.0036504,0,0,0.052511,-0.015663,0,0.014145,0,0,0,0.04458,0.0059191,0.01515,5.7216,0.021883,0.034973,1.9286e-06,0.24,0.28,0
0.016024,0.0032142,0.034837,0.0031069,0.011383,0.00083492,0,0,0.04202,-0.014659,0,0.0031886,0,0,0,0.03486,0.0030841,0.011383,1.5827,0.016442,0.028546,1.0164e-06,0.28,0.28,0
0.017377,0.0031065,0.038816,0.002347,0.012349,0.0003703,0,0,0.034407,-0.013002,0,0.00096278,0,0,0,0.03882,0.0023433,0.012349,0.58169,0.017837,0.032645,1.2372e-06,0.32,0.28,0
0.018777,0.0029308,0.039017,0.0026198,0.012491,0.0002097,0,0,0.034484,-0.012833,0,0.00054523,0,0,0,0.039018,0.0026186,0.012491,0.3301,0.018043,0.032604,1.2453e-06,0.36,0.28,0
0.020136,0.00266,0.038082,0.0024255,0.012152,8.4509e-06,0,0,0.033708,-0.012645,0,2.1972e-05,0,0,0,0.038082,0.0024255,0.012152,0.01358,0.017553,0.031924,1.163e-06,0.4,0.28,0
0.021473,0.0023623,0.03745,0.001968,0.011825,8.4645e-05,0,0,0.033312,-0.012814,0,0.00022008,0,0,0,0.03745,0.0019678,0.011825,0.13668,0.017081,0.031724,1.1218e-06,0.44,0.28,0
0.022801,0.0020466,0.037035,0.0011764,0.011463,0.00011804,0,0,0.033243,-0.013373,0,0.00030691,0,0,0,0.037035,0.001176,0.011463,0.18861,0.016558,0.031981,1.1127e-06,0.48,0.28,0
0.024133,0.0016583,0.035403,-0.00022892,0.010552,0.0001494,0,0,0.032306,-0.014016,0,0.00038845,0,0,0,0.035404,-0.00022955,0.010552,0.24024,0.015242,0.031651,1.0143e-06,0.52,0.28,0
0.025385,0.0011971,0.03077,-0.00016529,0.0091816,-0.00030588,0,0,0.038643,-0.016654,0,-0.0017666,0,0,0,0.030783,-0.00017755,0.0091816,-0.82101,0.013262,0.027502,7.8622e-07,0.56,0.28,0
0.027078,0.00094558,0.037654,-0.00078286,0.011061,-0.001909,0,0,0.047985,-0.021132,0,-0.0076711,0,0,0,0.037759,-0.00088783,0.011061,-3.0586,0.015977,0.034273,1.4336e-06,0.6,0.28,0
0.029451,0.00094131,0.032135,-0.00010562,0.0096088,-0.0013035,0,0,0.058568,-0.025257,0,-0.0067781,0,0,0,0.032188,-0.00015823,0.0096088,-2.3114,0.013879,0.028735,7.6099e-07,0.64,0.28,0
0.031763,0.00076494,0.031005,-0.0012458,0.0089278,-0.0015524,0,0,0.057401,-0.026451,0,-0.0080725,0,0,0,0.03108,-0.0013203,0.0089278,-2.7494,0.012896,0.028684,7.112e-07,0.68,0.28,0
0.034043,0.00065001,0.030553,-0.0020456,0.0085523,-0.0013664,0,0,0.057202,-0.027555,0,-0.0071052,0,0,0,0.03061,-0.0021028,0.0085523,-2.396,0.012353,0.028899,6.9557e-07,0.72,0.28,0
0.036339,0.00066565,0.030356,-0.002795,0.0082683,-0.00094709,0,0,0.057428,-0.028765,0,-0.0049248,0,0,0,0.030383,-0.002822,0.0082683,-1.6351,0.011943,0.02928,6.9374e-07,0.76,0.28,0
0.038637,0.00084476,0.030599,-0.0022202,0.0085136,-0.00025727,0,0,0.057422,-0.027908,0,-0.0013378,0,0,0,0.030601,-0.0022222,0.0085136,-0.44911,0.012297,0.028987,6.9723e-07,0.8,0.28,0
0.040933,0.0011314,0.030941,-0.00096621,0.0089925,4.3218e-05,0,0,0.057067,-0.025893,0,0.00022474,0,0,0,0.030941,-0.00096627,0.0089925,0.077607,0.012989,0.028276,6.9425e-07,0.84,0.28,0
0.043202,0.0014225,0.031089,-0.00022498,0.0092591,0.00021471,0,0,0.056757,-0.024658,0,0.0011165,0,0,0,0.03109,-0.00022645,0.0092591,0.39283,0.013374,0.027814,6.8749e-07,0.88,0.28,0
0.045473,0.0016545,0.031361,0.00049439,0.0095566,0.00020805,0,0,0.056691,-0.023562,0,0.0010819,0,0,0,0.031362,0.00049299,0.0095566,0.38616,0.013804,0.027482,6.883e-07,0.92,0.28,0
0.047738,0.0018054,0.031468,0.00088228,0.009705,0.00012756,0,0,0.056583,-0.022939,0,0.0006633,0,0,0,0.031468,0.00088175,0.009705,0.23895,0.014018,0.027267,6.8556e-07,0.96,0.28,0
0.05,0.0018569,0.031509,0.0010147,0.009757,0.00024769,0,0,0.056555,-0.02273,0,0.001288,0,0,0,0.031511,0.0010127,0.009757,0.46535,0.014094,0.027201,6.8503e-07,1,0.28,0
0,0,0.036465,0.015628,0.015628,0.0042477,0,0,0.054177,0,0,0.022088,0,0,0,0.037298,0.014795,0.015628,11.09,0.022574,0.022098,5.5158e-07,0,0.32,0
0.0021671,0.00088353,0.036161,0.012571,0.01462,0.0042581,0,0,0.056008,-0.0053261,0,0.022142,0,0,0,0.036906,0.011826,0.01462,9.9252,0.021117,0.023807,6.609e-07,0.04,0.32,0
0.0044806,0.0016234,0.037201,0.010594,0.014339,0.0039926,0,0,0.059443,-0.0097356,0,0.020762,0,0,0,0.037787,0.010008,0.014339,8.3527,0.020711,0.025887,8.0759e-07,0.08,0.32,0
0.0069225,0.0022244,0.03821,0.009105,0.014194,0.0037409,0,0,0.06244,-0.013233,0,0.019453,0,0,0,0.038683,0.0086318,0.014194,7.2084,0.020503,0.027692,9.4403e-07,0.12,0.32,0
0.0094758,0.0026679,0.039268,0.0082369,0.014252,0.0033497,0,0,0.065044,-0.015638,0,0.017419,0,0,0,0.039626,0.0078794,0.014252,6.0914,0.020586,0.029089,1.0625e-06,0.16,0.32,0
0.012126,0.0029031,0.040158,0.0080791,0.014471,0.0026262,0,0,0.066785,-0.016619,0,0.013656,0,0,0,0.040371,0.0078655,0.014471,4.6495,0.020903,0.029758,1.1319e-06,0.2,0.32,0
0.014819,0.0028755,0.039758,0.0057039,0.013639,0.0024688,0,0,0.050784,-0.013754,0,0.0091619,0,0,0,0.039937,0.0055252,0.013639,4.1036,0.0197,0.031216,1.1844e-06,0.24,0.32,0
0.016189,0.0027031,0.040315,0.0039239,0.013272,0.0011283,0,0,0.035157,-0.012152,0,0.0029335,0,0,0,0.04035,0.0038889,0.013272,1.7741,0.01917,0.032793,1.3237e-06,0.28,0.32,0
0.017631,0.0026007,0.040697,0.0035178,0.013264,0.001285,0,0,0.035662,-0.01267,0,0.003341,0,0,0,0.040741,0.0034735,0.013264,1.9772,0.01916,0.033464,1.3838e-06,0.32,0.32,0
0.019042,0.0024058,0.039797,0.0027283,0.012758,0.00068187,0,0,0.035151,-0.013038,0,0.0017729,0,0,0,0.039809,0.0027158,0.012758,1.0535,0.018428,0.033231,1.3207e-06,0.36,0.32,0
0.020443,0.0021473,0.039406,0.0024893,0.012568,0.00051393,0,0,0.034889,-0.013103,0,0.0013362,0,0,0,0.039413,0.0024821,0.012568,0.79742,0.018155,0.033063,1.2904e-06,0.4,0.32,0
0.021833,0.0018393,0.038943,0.0018575,0.01224,0.00059847,0,0,0.034714,-0.013497,0,0.001556,0,0,0,0.038953,0.0018478,0.01224,0.9243,0.01768,0.033154,1.2703e-06,0.44,0.32,0
0.02322,0.0014924,0.038281,0.00080395,0.011725,0.00081058,0,0,0.034522,-0.014198,0,0.0021075,0,0,0,0.038298,0.00078642,0.011725,1.2385,0.016937,0.033414,1.2466e-06,0.48,0.32,0
0.024595,0.0011039,0.037498,0.0001641,0.011299,0.00086867,0,0,0.034059,-0.014475,0,0.0022585,0,0,0,0.037518,0.0001439,0.011299,1.3322,0.01632,0.033232,1.1939e-06,0.52,0.32,0
0.025945,0.00063954,0.034801,-0.00065781,0.010243,0.0014736,0,0,0.031925,-0.014171,0,0.0038314,0,0,0,0.034862,-0.00071895,0.010243,2.3757,0.014795,0.031561,9.8264e-07,0.56,0.32,0
0.027149,0.00017258,0.031875,-0.0012579,0.0091852,0.00087109,0,0,0.04395,-0.018101,0,0.003876,0,0,0,0.031905,-0.0012876,0.0091852,1.6016,0.013267,0.029472,7.3121e-07,0.6,0.32,0
0.029461,-8.8884e-05,0.031349,0.00037177,0.0095164,0.00027914,0,0,0.056766,-0.023776,0,0.0014515,0,0,0,0.031352,0.00036925,0.0095164,0.51624,0.013746,0.027572,6.9065e-07,0.64,0.32,0
0.03169,-0.00028785,0.029703,-0.00083911,0.0086593,-0.00046885,0,0,0.054715,-0.024696,0,-0.002438,0,0,0,0.029711,-0.0008463,0.0086593,-0.87926,0.012508,0.027085,6.1302e-07,0.68,0.32,0
0.033838,-0.00044248,0.028888,-0.0016646,0.008167,-0.0011676,0,0,0.053874,-0.025562,0,-0.0060716,0,0,0,0.028932,-0.0017092,0.008167,-2.1854,0.011797,0.027089,5.8246e-07,0.72,0.32,0
0.036,-0.00050549,0.029601,-0.0024069,0.0081583,-0.0014793,0,0,0.055752,-0.027469,0,-0.0076922,0,0,0,0.029669,-0.0024751,0.0081583,-2.6404,0.011784,0.028364,6.4116e-07,0.76,0.32,0
0.038298,-0.00029221,0.03012,-0.0030059,0.0081342,-0.001674,0,0,0.057162,-0.028964,0,-0.0087048,0,0,0,0.030204,-0.0030903,0.0081342,-2.8857,0.011749,0.029339,6.8647e-07,0.8,0.32,0
0.040573,8.7599e-05,0.031031,-0.0019316,0.0087298,-0.00048539,0,0,0.057983,-0.02772,0,-0.002524,0,0,0,0.031038,-0.0019388,0.0087298,-0.84346,0.01261,0.029146,7.2124e-07,0.84,0.32,0
0.042937,0.00041756,0.032261,-0.00035963,0.0095704,-0.0001531,0,0,0.058995,-0.025818,0,-0.0007961,0,0,0,0.032262,-0.00036035,0.0095704,-0.2689,0.013824,0.028963,7.7129e-07,0.88,0.32,0
0.045292,0.00069941,0.032557,0.0004762,0.00991,4.6583e-05,0,0,0.058882,-0.024528,0,0.00024223,0,0,0,0.032557,0.00047613,0.00991,0.083196,0.014314,0.028558,7.7094e-07,0.92,0.32,0
0.047648,0.00087548,0.032748,0.00097032,0.010115,3.5506e-05,0,0,0.058845,-0.023778,0,0.00018463,0,0,0,0.032748,0.00097028,0.010115,0.064018,0.014611,0.028335,7.7122e-07,0.96,0.32,0
0.05,0.00093606,0.032776,0.0010796,0.010157,0.00029122,0,0,0.058811,-0.023601,0,0.0015144,0,0,0,0.032779,0.0010769,0.010157,0.52637,0.014671,0.028277,7.7046e-07,1,0.32,0
0,0,0.037528,0.016083,0.016083,0.0031797,0,0,0.055756,-1.0842e-18,0,0.016535,0,0,0,0.037989,0.015622,0.016083,8.259,0.023231,0.02214,5.566e-07,0,0.36,0
0.0022302,0.00066139,0.037205,0.012833,0.015011,0.0031696,0,0,0.057703,-0.0056641,0,0.016482,0,0,0,0.03761,0.012427,0.015011,7.2899,0.021683,0.023996,6.8194e-07,0.04,0.36,0
0.0046163,0.0012206,0.038331,0.010804,0.014741,0.0029495,0,0,0.061335,-0.010234,0,0.015337,0,0,0,0.038643,0.010492,0.014741,6.0478,0.021292,0.026286,8.5125e-07,0.08,0.36,0
0.007137,0.0016808,0.039362,0.0093046,0.0146,0.0027406,0,0,0.064381,-0.013768,0,0.014251,0,0,0,0.03961,0.0090568,0.0146,5.1673,0.021089,0.028193,1.0026e-06,0.12,0.36,0
0.0097667,0.0020343,0.040126,0.0084453,0.014571,0.002464,0,0,0.066442,-0.015928,0,0.012813,0,0,0,0.040317,0.0082548,0.014571,4.4208,0.021048,0.029417,1.1069e-06,0.16,0.36,0
0.012452,0.0022576,0.040425,0.0086606,0.014726,0.0020933,0,0,0.066819,-0.01577,0,0.010885,0,0,0,0.040563,0.0085232,0.014726,3.7542,0.021271,0.029433,1.116e-06,0.2,0.36,0
0.015112,0.0023663,0.040699,0.0067834,0.014245,0.001703,0,0,0.051014,-0.012933,0,0.0068744,0,0,0,0.040787,0.0066946,0.014245,2.9244,0.020576,0.031059,1.2217e-06,0.24,0.36,0
0.016534,0.0022421,0.040857,0.0046523,0.013653,0.0018106,0,0,0.035366,-0.011701,0,0.0047075,0,0,0,0.040947,0.004562,0.013653,2.8559,0.019721,0.032799,1.3538e-06,0.28,0.36,0
0.017941,0.0020928,0.040579,0.0037133,0.013288,0.001402,0,0,0.035479,-0.012447,0,0.0036453,0,0,0,0.040633,0.0036601,0.013288,2.1748,0.019193,0.033222,1.3637e-06,0.32,0.36,0
0.019372,0.0018878,0.040728,0.0031241,0.013156,0.0010592,0,0,0.035844,-0.013041,0,0.0027539,0,0,0,0.040758,0.0030943,0.013156,1.6122,0.019002,0.033776,1.403e-06,0.36,0.36,0
0.020809,0.0016118,0.040633,0.002479,0.012934,0.0008322,0,0,0.036009,-0.013591,0,0.0021637,0,0,0,0.040651,0.0024609,0.012934,1.2489,0.018682,0.034179,1.4203e-06,0.4,0.36,0
0.022253,0.0012825,0.040482,0.0016526,0.01264,0.00087262,0,0,0.036194,-0.014284,0,0.0022688,0,0,0,0.040501,0.001633,0.01264,1.2868,0.018258,0.0347,1.4404e-06,0.44,0.36,0
0.023704,0.00091078,0.04033,0.00071468,0.012313,0.0010978,0,0,0.036421,-0.015078,0,0.0028543,0,0,0,0.04036,0.00068428,0.012313,1.5861,0.017786,0.035327,1.4649e-06,0.48,0.36,0
0.025166,0.00050033,0.040023,-0.00015172,0.011961,0.0015992,0,0,0.03648,-0.015747,0,0.004158,0,0,0,0.040086,-0.00021528,0.011961,2.276,0.017277,0.035801,1.4706e-06,0.52,0.36,0
0.026623,6.3447e-05,0.040445,-0.0001702,0.012082,0.002001,0,0,0.036871,-0.015928,0,0.0052025,0,0,0,0.040543,-0.00026854,0.012082,2.8137,0.017452,0.03625,1.5235e-06,0.56,0.36,0
0.028116,-0.00050252,0.036182,0.0014683,0.011295,0.0030774,0,0,0.044299,-0.016994,0,0.011184,0,0,0,0.036454,0.0011958,0.011295,5.1459,0.016315,0.031454,1.2705e-06,0.6,0.36,0
0.030027,-0.00096077,0.039765,0.0013068,0.012322,0.0016751,0,0,0.047568,-0.019768,0,0.0056815,0,0,0,0.039838,0.0012334,0.012322,2.4182,0.017798,0.034435,1.8505e-06,0.64,0.36,0
0.031921,-0.0012107,0.038536,-0.00016655,0.011511,0.00077818,0,0,0.046843,-0.020948,0,0.0021141,0,0,0,0.038558,-0.0001885,0.011511,0.9165,0.016627,0.03443,1.7507e-06,0.68,0.36,0
0.033775,-0.001395,0.037119,-0.001177,0.010783,-0.0003735,0,0,0.04565,-0.0215,0,-0.0023711,0,0,0,0.037142,-0.0011998,0.010783,-0.96281,0.015575,0.033985,1.6084e-06,0.72,0.36,0
0.035574,-0.0015319,0.035936,-0.002035,0.01017,-0.0011772,0,0,0.044661,-0.022282,0,-0.0059672,0,0,0,0.036028,-0.0021269,0.01017,-2.4164,0.014691,0.033755,1.501e-06,0.76,0.36,0
0.037348,-0.0014724,0.039044,-0.0038033,0.010572,-0.00163,0,0,0.051849,-0.025573,0,-0.0068595,0,0,0,0.03912,-0.0038787,0.010572,-2.4014,0.015271,0.037904,1.6445e-06,0.8,0.36,0
0.040021,-0.0010861,0.034616,-0.0022309,0.0097155,-0.0014579,0,0,0.064741,-0.031061,0,-0.0075811,0,0,0,0.034674,-0.0022885,0.0097155,-2.2623,0.014034,0.032659,1.0086e-06,0.84,0.36,0
0.042527,-0.00064292,0.034043,-0.0009129,0.0099391,-0.00031812,0,0,0.062671,-0.028215,0,-0.0016542,0,0,0,0.034046,-0.00091579,0.0099391,-0.52137,0.014356,0.030995,9.2102e-07,0.88,0.36,0
0.045035,-0.00030778,0.034536,0.000632,0.01055,-0.00013861,0,0,0.062362,-0.025788,0,-0.00072077,0,0,0,0.034536,0.00063143,0.01055,-0.23424,0.015239,0.030193,9.1646e-07,0.92,0.36,0
0.047516,-9.6802e-05,0.034513,0.00095948,0.010642,-7.9626e-05,0,0,0.062065,-0.025174,0,-0.00041405,0,0,0,0.034513,0.00095929,0.010642,-0.13597,0.015371,0.029912,9.0467e-07,0.96,0.36,0
0.05,-3.1129e-05,0.03455,0.0010001,0.010665,0.00031574,0,0,0.062101,-0.025129,0,0.0016418,0,0,0,0.034553,0.00099713,0.010665,0.53914,0.015405,0.029918,9.0672e-07,1,0.36,0
0,0,0.038113,0.016334,0.016334,0.0020692,0,0,0.056626,2.1684e-19,0,0.01076,0,0,0,0.038308,0.016139,0.016334,5.3795,0.023594,0.022072,5.5212e-07,0,0.4,0
0.002265,0.0004304,0.037789,0.013042,0.015249,0.0020296,0,0,0.058602,-0.0057386,0,0.010554,0,0,0,0.037954,0.012877,0.015249,4.6578,0.022027,0.023979,6.8483e-07,0.04,0.4,0
0.0046882,0.00080466,0.038946,0.011003,0.014985,0.0018476,0,0,0.062299,-0.010352,0,0.0096073,0,0,0,0.039067,0.010881,0.014985,3.7665,0.021645,0.026375,8.6594e-07,0.08,0.4,0
0.0072489,0.0011229,0.04003,0.0094947,0.014857,0.0016884,0,0,0.065448,-0.013943,0,0.0087796,0,0,0,0.040123,0.0094016,0.014857,3.1552,0.021461,0.028389,1.0304e-06,0.12,0.4,0
0.0099241,0.0013936,0.040886,0.0086103,0.014849,0.0016467,0,0,0.067697,-0.016221,0,0.0085629,0,0,0,0.04097,0.0085265,0.014849,2.9131,0.021449,0.02979,1.1543e-06,0.16,0.4,0
0.012665,0.0016415,0.041246,0.0087389,0.014996,0.0017607,0,0,0.068251,-0.016267,0,0.0091557,0,0,0,0.041341,0.0086438,0.014996,3.0913,0.02166,0.03003,1.1838e-06,0.2,0.4,0
0.015384,0.0018408,0.041564,0.0067778,0.014502,0.0019615,0,0,0.052176,-0.013389,0,0.0079379,0,0,0,0.041679,0.0066626,0.014502,3.2841,0.020948,0.031874,1.3126e-06,0.24,0.4,0
0.016839,0.001767,0.041876,0.004989,0.014059,0.001525,0,0,0.036161,-0.011792,0,0.003965,0,0,0,0.041939,0.004926,0.014059,2.3634,0.020308,0.033396,1.4415e-06,0.28,0.4,0
0.018277,0.0016049,0.04162,0.0040281,0.013695,0.0013669,0,0,0.036304,-0.012566,0,0.0035539,0,0,0,0.04167,0.0039785,0.013695,2.0797,0.019781,0.033895,1.4598e-06,0.32,0.4,0
0.019743,0.0013625,0.041904,0.0033983,0.013591,0.0011262,0,0,0.036808,-0.01325,0,0.002928,0,0,0,0.041937,0.0033654,0.013591,1.6738,0.019631,0.034611,1.5196e-06,0.36,0.4,0
0.021222,0.00106,0.041957,0.0026369,0.013378,0.00096558,0,0,0.037152,-0.013964,0,0.0025105,0,0,0,0.04198,0.0026132,0.013378,1.4059,0.019324,0.03524,1.5608e-06,0.4,0.4,0
0.022715,0.00069654,0.042028,0.0016172,0.013093,0.0008822,0,0,0.037614,-0.014919,0,0.0022937,0,0,0,0.042047,0.0015979,0.013093,1.25,0.018913,0.036101,1.6162e-06,0.44,0.4,0
0.024231,0.00028618,0.042218,0.00045657,0.012802,0.0010425,0,0,0.038241,-0.01605,0,0.0027104,0,0,0,0.042244,0.00043056,0.012802,1.429,0.018492,0.037204,1.6925e-06,0.48,0.4,0
0.025774,-0.00015584,0.042911,-0.00030153,0.012783,0.0013581,0,0,0.039166,-0.01701,0,0.003531,0,0,0,0.042953,-0.00034417,0.012783,1.7983,0.018464,0.038453,1.8144e-06,0.52,0.4,0
0.027364,-0.00063472,0.044066,-0.00074044,0.012998,0.001577,0,0,0.040389,-0.01786,0,0.0041003,0,0,0,0.044121,-0.00079588,0.012998,2.0133,0.018774,0.039853,1.9868e-06,0.56,0.4,0
0.029006,-0.0011916,0.045004,0.00053332,0.013661,0.0021105,0,0,0.040746,-0.017066,0,0.0054873,0,0,0,0.045104,0.00043338,0.013661,2.711,0.019733,0.039744,2.0614e-06,0.6,0.4,0
0.030624,-0.0016703,0.045616,0.0010663,0.014004,0.0018077,0,0,0.041094,-0.01682,0,0.0046999,0,0,0,0.045689,0.00099309,0.014004,2.3198,0.020229,0.039818,2.1135e-06,0.64,0.4,0
0.032293,-0.0019637,0.046044,0.00019471,0.013872,0.0016086,0,0,0.041824,-0.01778,0,0.0041823,0,0,0,0.046101,0.00013835,0.013872,2.0068,0.020037,0.040864,2.217e-06,0.68,0.4,0
0.03397,-0.0021625,0.045088,-0.00077625,0.013294,0.0011076,0,0,0.041333,-0.018291,0,0.0028798,0,0,0,0.045115,-0.00080298,0.013294,1.3826,0.019202,0.040742,2.1236e-06,0.72,0.4,0
0.0356,-0.002288,0.042918,-0.0020719,0.012254,0.00047224,0,0,0.039864,-0.018624,0,0.0012278,0,0,0,0.042923,-0.0020769,0.012254,0.60132,0.0177,0.039818,1.8837e-06,0.76,0.4,0
0.037159,-0.0024167,0.035776,-0.0026675,0.0099325,0.00018971,0,0,0.045959,-0.022282,0,-0.00056605,0,0,0,0.035802,-0.0026939,0.0099325,-0.1291,0.014347,0.03399,1.3503e-06,0.8,0.4,0
0.039137,-0.0023973,0.043617,-0.0030617,0.012167,-0.00035953,0,0,0.057046,-0.027308,0,-0.002235,0,0,0,0.043632,-0.0030761,0.012167,-0.64459,0.017574,0.041257,2.2741e-06,0.84,0.4,0
0.042026,-0.0018397,0.037769,-0.00084276,0.011078,-0.00048126,0,0,0.069397,-0.030994,0,-0.0025026,0,0,0,0.037775,-0.00084876,0.011078,-0.71399,0.016001,0.034255,1.2525e-06,0.88,0.4,0
0.044689,-0.0013636,0.036792,0.00072764,0.011256,-0.0001621,0,0,0.066394,-0.027373,0,-0.00084294,0,0,0,0.036793,0.00072691,0.011256,-0.25753,0.016259,0.032123,1.1062e-06,0.92,0.4,0
0.047338,-0.0011384,0.036828,0.00081321,0.011292,-0.00017725,0,0,0.066392,-0.027246,0,-0.00092167,0,0,0,0.036829,0.00081234,0.011292,-0.28197,0.016311,0.032087,1.1066e-06,0.96,0.4,0
0.05,-0.0010743,0.036948,0.00088488,0.01135,0.00030839,0,0,0.066555,-0.027209,0,0.0016036,0,0,0,0.036951,0.00088225,0.01135,0.48991,0.016394,0.03214,1.1153e-06,1,0.4,0
0,0,0.038195,0.016369,0.016369,0.00097261,0,0,0.056747,-2.1684e-19,0,0.0050576,0,0,0,0.038239,0.016326,0.016369,2.5465,0.023645,0.021891,5.3877e-07,0,0.44,0
0.0022699,0.0002023,0.037885,0.013201,0.015326,0.00090357,0,0,0.058654,-0.0055243,0,0.0046986,0,0,0,0.037918,0.013168,0.015326,2.0936,0.022137,0.023745,6.6847e-07,0.04,0.44,0
0.0046923,0.00039245,0.039009,0.011204,0.015064,0.0007476,0,0,0.062256,-0.010035,0,0.0038875,0,0,0,0.039029,0.011184,0.015064,1.5391,0.021759,0.026122,8.4776e-07,0.08,0.44,0
0.0072504,0.00056537,0.040152,0.0096984,0.014955,0.00058368,0,0,0.065511,-0.013667,0,0.0030351,0,0,0,0.040163,0.0096872,0.014955,1.0976,0.021602,0.028213,1.0192e-06,0.12,0.44,0
0.0099332,0.0007366,0.041447,0.0087727,0.015066,0.00057646,0,0,0.068591,-0.016362,0,0.0029976,0,0,0,0.041457,0.0087625,0.015066,1.0104,0.021762,0.030043,1.1887e-06,0.16,0.44,0
0.012738,0.00095624,0.042705,0.008482,0.015356,0.00098174,0,0,0.071107,-0.017873,0,0.005105,0,0,0,0.042733,0.0084539,0.015356,1.6418,0.022181,0.031402,1.3351e-06,0.2,0.44,0
0.015622,0.0012952,0.042237,0.0053823,0.014286,0.00088044,0,0,0.054363,-0.015433,0,0.0044497,0,0,0,0.042278,0.0053413,0.014286,1.4804,0.020635,0.033441,1.4286e-06,0.24,0.44,0
0.017087,0.0012987,0.043421,0.0048883,0.014493,0.002107,0,0,0.037607,-0.012486,0,0.0054781,0,0,0,0.043536,0.0047734,0.014493,3.1205,0.020934,0.034932,1.6313e-06,0.28,0.44,0
0.01863,0.0010875,0.043983,0.0044098,0.014518,0.0013319,0,0,0.038305,-0.01314,0,0.0034629,0,0,0,0.044028,0.0043651,0.014518,1.9255,0.02097,0.035687,1.7129e-06,0.32,0.44,0
0.020151,0.00082776,0.043372,0.0035905,0.014089,0.0013704,0,0,0.038068,-0.013648,0,0.0035631,0,0,0,0.043419,0.0035433,0.014089,1.9707,0.02035,0.035788,1.6833e-06,0.36,0.44,0
0.021676,0.00049468,0.043337,0.0030804,0.013925,0.0010309,0,0,0.038236,-0.014098,0,0.0026803,0,0,0,0.043364,0.003054,0.013925,1.4659,0.020114,0.036123,1.7021e-06,0.4,0.44,0
0.02321,8.8937e-05,0.043285,0.0017053,0.013497,0.00075828,0,0,0.038724,-0.015329,0,0.0019715,0,0,0,0.043299,0.0016915,0.013497,1.0444,0.019496,0.037139,1.7627e-06,0.44,0.44,0
0.024774,-0.00037319,0.043468,0.00014889,0.013085,0.00076116,0,0,0.039497,-0.016817,0,0.001979,0,0,0,0.043481,0.00013552,0.013085,1.0063,0.018901,0.038539,1.8599e-06,0.48,0.44,0
0.02637,-0.00086043,0.043772,-0.00084447,0.012878,0.00093123,0,0,0.040162,-0.01784,0,0.0024212,0,0,0,0.043791,-0.0008639,0.012878,1.1952,0.018602,0.039614,1.9459e-06,0.52,0.44,0
0.027987,-0.0013653,0.043789,-0.0010602,0.012819,0.00094527,0,0,0.040261,-0.018042,0,0.0024577,0,0,0,0.043809,-0.0010801,0.012819,1.2069,0.018516,0.039803,1.9579e-06,0.56,0.44,0
0.029591,-0.0018678,0.043925,0.00028733,0.013264,0.00097214,0,0,0.03986,-0.016869,0,0.0025276,0,0,0,0.043947,0.00026568,0.013264,1.2756,0.019159,0.038849,1.9142e-06,0.6,0.44,0
0.031175,-0.0023063,0.043925,0.0012853,0.013563,0.0014983,0,0,0.03947,-0.015961,0,0.0038955,0,0,0,0.043977,0.0012327,0.013563,2.01,0.019591,0.038106,1.8712e-06,0.64,0.44,0
0.032748,-0.0026331,0.043616,0.00067753,0.013288,0.0018848,0,0,0.039426,-0.016393,0,0.0049005,0,0,0,0.043698,0.00059495,0.013288,2.5086,0.019194,0.038365,1.8662e-06,0.68,0.44,0
0.034329,-0.0028582,0.043603,-0.0001057,0.013049,0.0020004,0,0,0.03972,-0.017101,0,0.0052011,0,0,0,0.043694,-0.00019706,0.013049,2.615,0.018849,0.038994,1.9029e-06,0.72,0.44,0
0.035926,-0.0030218,0.043811,-0.0012658,0.012764,0.0018478,0,0,0.040362,-0.018238,0,0.0048042,0,0,0,0.043887,-0.0013414,0.012764,2.3434,0.018436,0.040082,1.9798e-06,0.76,0.44,0
0.037559,-0.0032019,0.043119,-0.002623,0.012149,0.0018122,0,0,0.040261,-0.019203,0,0.0047118,0,0,0,0.043191,-0.0026947,0.012149,2.2652,0.017548,0.040555,1.9433e-06,0.8,0.44,0
0.039147,-0.0033802,0.038267,-0.0019777,0.010887,0.0016227,0,0,0.049009,-0.022867,0,0.0058915,0,0,0,0.038332,-0.0020431,0.010887,2.3331,0.015725,0.035712,1.5893e-06,0.84,0.44,0
0.041293,-0.0031224,0.04718,-0.0019361,0.013573,-8.2945e-05,0,0,0.060548,-0.027624,0,-0.00063359,0,0,0,0.047182,-0.0019377,0.013573,-0.17283,0.019606,0.043492,2.8651e-06,0.88,0.44,0
0.044266,-0.0024977,0.040793,0.0012774,0.012621,0.00052321,0,0,0.073247,-0.029494,0,0.0027207,0,0,0,0.0408,0.0012705,0.012621,0.75846,0.018231,0.035252,1.4888e-06,0.92,0.44,0
0.047153,-0.0022765,0.039805,0.00098887,0.012238,2.2985e-05,0,0,0.071673,-0.029248,0,0.00011952,0,0,0,0.039805,0.00098886,0.012238,0.033928,0.017677,0.034591,1.3926e-06,0.96,0.44,0
0.05,-0.0022078,0.039522,0.0009633,0.012146,0.00032984,0,0,0.071178,-0.029074,0,0.0017152,0,0,0,0.039524,0.00096048,0.012146,0.49008,0.017543,0.034365,1.3643e-06,1,0.44,0
0,0,0.037835,0.016215,0.016215,-5.5518e-05,0,0,0.056211,-6.5052e-19,0,-0.00028869,0,0,0,0.037835,0.016215,0.016215,-0.14713,0.023421,0.02162,5.1903e-07,0,0.48,0
0.0022484,-1.1548e-05,0.037543,0.013303,0.015254,-0.0001415,0,0,0.057951,-0.0050719,0,-0.00073583,0,0,0,0.037544,0.013302,0.015254,-0.33446,0.022033,0.023327,6.3656e-07,0.04,0.48,0
0.0046361,1.8467e-06,0.038528,0.011385,0.014974,-0.00026633,0,0,0.06124,-0.00933,0,-0.0013849,0,0,0,0.03853,0.011383,0.014974,-0.56213,0.021629,0.025542,7.9908e-07,0.08,0.48,0
0.0071476,2.9564e-05,0.03951,0.0098684,0.014814,-0.00045716,0,0,0.064211,-0.012857,0,-0.0023772,0,0,0,0.039517,0.0098614,0.014814,-0.88338,0.021397,0.027516,9.5421e-07,0.12,0.48,0
0.009773,8.4658e-05,0.040625,0.0087833,0.014823,-0.00060166,0,0,0.067087,-0.015702,0,-0.0031286,0,0,0,0.040636,0.008772,0.014823,-1.0821,0.02141,0.029312,1.1099e-06,0.16,0.48,0
0.012515,0.0002117,0.042145,0.0082004,0.015104,-0.00032377,0,0,0.070308,-0.017949,0,-0.0016836,0,0,0,0.042148,0.0081973,0.015104,-0.54643,0.021816,0.031079,1.2888e-06,0.2,0.48,0
0.015398,0.00060622,0.049345,0.0062956,0.016692,-0.00082498,0,0,0.05881,-0.018419,0,-0.0035121,0,0,0,0.049365,0.0062753,0.016692,-1.2407,0.024111,0.038943,2.6821e-06,0.24,0.48,0
0.017485,0.00076815,0.039811,0.0042357,0.013214,0.001657,0,0,0.04762,-0.016022,0,0.0059753,0,0,0,0.039888,0.0041587,0.013214,2.6761,0.019087,0.032172,1.4931e-06,0.28,0.48,0
0.019025,0.00055369,0.04469,0.0037546,0.014533,0.0021256,0,0,0.039204,-0.014013,0,0.0055265,0,0,0,0.044801,0.0036446,0.014533,2.9644,0.020993,0.036936,1.8498e-06,0.32,0.48,0
0.020621,0.00027068,0.044999,0.0040397,0.014712,0.0017063,0,0,0.039373,-0.013873,0,0.0044363,0,0,0,0.04507,0.0039688,0.014712,2.3813,0.02125,0.036921,1.8661e-06,0.36,0.48,0
0.022175,-6.7888e-05,0.044512,0.0038661,0.014514,0.0012348,0,0,0.038998,-0.013842,0,0.0032106,0,0,0,0.04455,0.0038286,0.014514,1.7385,0.020964,0.036569,1.8075e-06,0.4,0.48,0
0.023741,-0.00052979,0.044248,0.0018489,0.013829,0.00062781,0,0,0.039545,-0.015574,0,0.0016323,0,0,0,0.044258,0.0018396,0.013829,0.84813,0.019976,0.037874,1.8767e-06,0.44,0.48,0
0.025338,-0.0010592,0.044041,-0.00042464,0.013085,0.00075727,0,0,0.040243,-0.017563,0,0.0019689,0,0,0,0.044054,-0.00043754,0.013085,0.97539,0.018901,0.039506,1.9614e-06,0.48,0.48,0
0.02696,-0.001583,0.043932,-0.0010042,0.012878,0.001002,0,0,0.04037,-0.018048,0,0.0026052,0,0,0,0.043955,-0.0010266,0.012878,1.2768,0.018602,0.03989,1.975e-06,0.52,0.48,0
0.028568,-0.0020781,0.043469,-0.00076956,0.01281,0.0010863,0,0,0.039857,-0.017653,0,0.0028243,0,0,0,0.043495,-0.00079621,0.01281,1.4058,0.018503,0.039297,1.904e-06,0.56,0.48,0
0.030149,-0.0025412,0.043038,1.7285e-05,0.012916,0.0012326,0,0,0.039157,-0.016769,0,0.0032048,0,0,0,0.043073,-1.8004e-05,0.012916,1.6399,0.018657,0.038298,1.8149e-06,0.6,0.48,0
0.031701,-0.0029472,0.042703,0.00065768,0.013008,0.0015843,0,0,0.038603,-0.016056,0,0.0041193,0,0,0,0.042762,0.00059807,0.013008,2.1549,0.01879,0.037531,1.7481e-06,0.64,0.48,0
0.033237,-0.0032752,0.042479,0.00060044,0.012924,0.0020021,0,0,0.038422,-0.01602,0,0.0052054,0,0,0,0.042575,0.00050495,0.012924,2.7308,0.018668,0.037438,1.7293e-06,0.68,0.48,0
0.034774,-0.0035306,0.042416,-9.0339e-05,0.012698,0.0021774,0,0,0.038634,-0.016625,0,0.0056613,0,0,0,0.042527,-0.00020159,0.012698,2.9248,0.018341,0.03796,1.7549e-06,0.72,0.48,0
0.036328,-0.0037471,0.042338,-0.0012005,0.012341,0.0019901,0,0,0.038996,-0.017604,0,0.0051742,0,0,0,0.042429,-0.0012913,0.012341,2.6116,0.017826,0.038746,1.7887e-06,0.76,0.48,0
0.037894,-0.0039529,0.042764,-0.0017873,0.012293,0.0014329,0,0,0.039612,-0.018304,0,0.0037256,0,0,0,0.04281,-0.0018334,0.012293,1.8403,0.017757,0.039521,1.8592e-06,0.8,0.48,0
0.039497,-0.0041584,0.042243,-0.0026336,0.011883,0.0020316,0,0,0.039468,-0.018871,0,0.0052821,0,0,0,0.042334,-0.0027254,0.011883,2.5868,0.017164,0.039819,1.8332e-06,0.84,0.48,0
0.041052,-0.0041385,0.041072,-0.0022138,0.011658,0.0011794,0,0,0.057044,-0.024044,0,0.0057365,0,0,0,0.041129,-0.0022698,0.011658,1.7158,0.016839,0.03849,1.5809e-06,0.88,0.48,0
0.04406,-0.0037231,0.04191,0.0015404,0.013035,0.0013592,0,0,0.075075,-0.029886,0,0.007068,0,0,0,0.041956,0.0014946,0.013035,1.9262,0.018829,0.036102,1.6103e-06,0.92,0.48,0
0.047058,-0.0034783,0.041372,0.0013482,0.012816,0.00066201,0,0,0.074246,-0.029817,0,0.0034425,0,0,0,0.041383,0.0013373,0.012816,0.94734,0.018512,0.035718,1.5514e-06,0.96,0.48,0
0.05,-0.0034001,0.041039,0.0014485,0.012746,0.00037546,0,0,0.073562,-0.029374,0,0.0019524,0,0,0,0.041043,0.001445,0.012746,0.5433,0.018411,0.03533,1.5082e-06,1,0.48,0
0,0,0.037174,0.015932,0.015932,-0.00097814,0,0,0.055229,-6.5052e-19,0,-0.0050863,0,0,0,0.037219,0.015887,0.015932,-2.6309,0.023012,0.021309,4.9698e-07,0,0.52,0
0.0022092,-0.00020345,0.036901,0.013338,0.015072,-0.0010567,0,0,0.056755,-0.0045065,0,-0.0054951,0,0,0,0.036948,0.013291,0.015072,-2.5628,0.02177,0.022819,5.9771e-07,0.04,0.52,0
0.0045404,-0.00035395,0.037684,0.011515,0.01476,-0.0011133,0,0,0.059603,-0.0084353,0,-0.0057891,0,0,0,0.037731,0.011468,0.01476,-2.4317,0.02132,0.024782,7.3538e-07,0.08,0.52,0
0.0069774,-0.00046322,0.038346,0.0099809,0.014498,-0.0012453,0,0,0.062005,-0.011745,0,-0.0064753,0,0,0,0.038401,0.0099264,0.014498,-2.5089,0.020942,0.026486,8.5922e-07,0.12,0.52,0
0.0095008,-0.00051957,0.038777,0.0086848,0.014238,-0.0013453,0,0,0.0638,-0.01444,0,-0.0069958,0,0,0,0.038837,0.0086248,0.014238,-2.5547,0.020567,0.027833,9.5734e-07,0.16,0.52,0
0.012081,-0.00047965,0.039,0.0075805,0.013974,-0.0012071,0,0,0.065067,-0.016623,0,-0.0062766,0,0,0,0.039046,0.0075342,0.013974,-2.1968,0.020185,0.028836,1.0275e-06,0.2,0.52,0
0.014706,-0.00022621,0.040341,0.0058574,0.013859,-0.0013621,0,0,0.068851,-0.020805,0,-0.007083,0,0,0,0.040394,0.0058036,0.013859,-2.2585,0.020019,0.031349,1.2371e-06,0.24,0.52,0
0.01759,7.2097e-05,0.046919,0.004618,0.015461,-0.0007054,0,0,0.057035,-0.019491,0,-0.0036588,0,0,0,0.046949,0.0045883,0.015461,-1.2148,0.022333,0.038106,2.3555e-06,0.28,0.52,0
0.01957,-3.3461e-05,0.038152,0.0028425,0.012298,0.00073365,0,0,0.045987,-0.016732,0,0.0015709,0,0,0,0.038186,0.002808,0.012298,0.81635,0.017764,0.031717,1.4001e-06,0.32,0.52,0
0.021128,-0.00028211,0.044832,0.0032229,0.014416,0.0012086,0,0,0.03954,-0.014552,0,0.0031423,0,0,0,0.044867,0.0031878,0.014416,1.6624,0.020824,0.037353,1.8837e-06,0.36,0.52,0
0.022733,-0.00061265,0.045511,0.0034925,0.014701,0.0013428,0,0,0.040053,-0.014571,0,0.0034912,0,0,0,0.045554,0.0034497,0.014701,1.8285,0.021235,0.037758,1.9594e-06,0.4,0.52,0
0.024332,-0.001157,0.04546,0.0018646,0.014198,0.0017065,0,0,0.040642,-0.016033,0,0.0044369,0,0,0,0.045527,0.0017979,0.014198,2.2382,0.020508,0.039035,2.048e-06,0.44,0.52,0
0.025984,-0.0017782,0.044651,-0.00047125,0.013254,0.0014361,0,0,0.040816,-0.017843,0,0.0037338,0,0,0,0.044697,-0.00051691,0.013254,1.8211,0.019145,0.040141,2.0519e-06,0.48,0.52,0
0.027597,-0.0023042,0.04342,-0.00081265,0.012782,0.0016074,0,0,0.039829,-0.017673,0,0.0041793,0,0,0,0.043478,-0.00087099,0.012782,2.0785,0.018463,0.039342,1.9051e-06,0.52,0.52,0
0.029171,-0.0027776,0.042554,-0.00067723,0.012563,0.0015669,0,0,0.038988,-0.017212,0,0.0040739,0,0,0,0.042611,-0.00073395,0.012563,2.073,0.018146,0.03846,1.7882e-06,0.56,0.52,0
0.030716,-0.0032094,0.042064,-0.00019188,0.012562,0.0016233,0,0,0.038353,-0.01658,0,0.0042207,0,0,0,0.042127,-0.00025415,0.012562,2.1968,0.018145,0.037646,1.7081e-06,0.6,0.52,0
0.032239,-0.0035908,0.04175,0.00023962,0.012597,0.0018485,0,0,0.037899,-0.016064,0,0.0048062,0,0,0,0.041832,0.00015747,0.012597,2.5448,0.018196,0.037056,1.6551e-06,0.64,0.52,0
0.033748,-0.0039148,0.04153,0.00025929,0.012537,0.0021186,0,0,0.037691,-0.015961,0,0.0055083,0,0,0,0.041638,0.00015082,0.012537,2.9309,0.018109,0.036889,1.6324e-06,0.68,0.52,0
0.035254,-0.0041882,0.041321,-0.00018563,0.012341,0.0022562,0,0,0.037675,-0.016284,0,0.0058662,0,0,0,0.041444,-0.00030791,0.012341,3.1023,0.017826,0.037082,1.6287e-06,0.72,0.52,0
0.036762,-0.0044301,0.041028,-0.00085165,0.012053,0.0021085,0,0,0.037668,-0.016776,0,0.0054821,0,0,0,0.041134,-0.00095754,0.012053,2.875,0.01741,0.037328,1.6185e-06,0.76,0.52,0
0.038268,-0.0046662,0.040403,-0.0016483,0.011626,0.0017733,0,0,0.03741,-0.017257,0,0.0046105,0,0,0,0.040478,-0.001723,0.011626,2.4104,0.016794,0.03736,1.5713e-06,0.8,0.52,0
0.039755,-0.0048899,0.040961,-0.0021473,0.011644,0.0014733,0,0,0.038112,-0.017929,0,0.0038305,0,0,0,0.041012,-0.0021976,0.011644,1.9551,0.016819,0.038217,1.6508e-06,0.84,0.52,0
0.041317,-0.0050459,0.040461,-0.0013992,0.011718,0.0017136,0,0,0.055206,-0.022738,0,0.0072466,0,0,0,0.040542,-0.0014799,0.011718,2.4625,0.016927,0.037307,1.5116e-06,0.88,0.52,0
0.044171,-0.0048886,0.040503,0.0017407,0.012673,0.0018557,0,0,0.072357,-0.028424,0,0.0096496,0,0,0,0.040592,0.0016521,0.012673,2.7346,0.018305,0.034765,1.4494e-06,0.92,0.52,0
0.047105,-0.0046618,0.040952,0.0021459,0.012929,0.0011336,0,0,0.072858,-0.028037,0,0.0058945,0,0,0,0.040985,0.0021128,0.012929,1.6718,0.018676,0.03475,1.4722e-06,0.96,0.52,0
0.05,-0.0045578,0.040716,0.0022276,0.012883,0.00049999,0,0,0.072366,-0.027705,0,0.0025999,0,0,0,0.040723,0.0022211,0.012883,0.74413,0.018609,0.034432,1.4388e-06,1,0.52,0
0,0,0.036393,0.015597,0.015597,-0.0017888,0,0,0.05407,-4.3368e-19,0,-0.0093018,0,0,0,0.036546,0.015444,0.015597,-4.8806,0.022529,0.021026,4.773e-07,0,0.56,0
0.0021628,-0.00037207,0.036145,0.0133,0.014833,-0.0018359,0,0,0.055409,-0.0039869,0,-0.0095465,0,0,0,0.036291,0.013153,0.014833,-4.5654,0.021426,0.022345,5.6213e-07,0.04,0.56,0
0.0044328,-0.00067298,0.036772,0.011563,0.014501,-0.0017857,0,0,0.057905,-0.0076366,0,-0.0092858,0,0,0,0.036898,0.011437,0.014501,-4.0319,0.020945,0.024075,6.7774e-07,0.08,0.56,0
0.0067952,-0.00091001,0.037242,0.010022,0.014179,-0.0017644,0,0,0.059963,-0.010808,0,-0.009175,0,0,0,0.037356,0.0099085,0.014179,-3.6934,0.020481,0.025581,7.7956e-07,0.12,0.56,0
0.0092298,-0.0010705,0.037537,0.0086781,0.013865,-0.001655,0,0,0.061548,-0.013485,0,-0.0086062,0,0,0,0.037632,0.0085835,0.013865,-3.2716,0.020026,0.026801,8.6072e-07,0.16,0.56,0
0.011719,-0.0011182,0.037855,0.007406,0.013578,-0.0014552,0,0,0.063119,-0.016048,0,-0.007567,0,0,0,0.037924,0.0073367,0.013578,-2.73,0.019613,0.027993,9.4059e-07,0.2,0.56,0
0.014279,-0.0010582,0.03748,0.0051695,0.012795,-0.0012227,0,0,0.064182,-0.019826,0,-0.0063582,0,0,0,0.037526,0.0051233,0.012795,-2.1641,0.018482,0.02933,1.0031e-06,0.24,0.56,0
0.016854,-0.00087478,0.038242,0.0036169,0.012558,-0.0018819,0,0,0.06678,-0.023246,0,-0.0097859,0,0,0,0.038344,0.0035149,0.012558,-3.1019,0.018139,0.031303,1.1435e-06,0.28,0.56,0
0.019622,-0.00074382,0.043237,0.0028868,0.013837,-0.0013945,0,0,0.053566,-0.019592,0,-0.0060271,0,0,0,0.0433,0.0028243,0.013837,-2.2062,0.019987,0.036248,1.8995e-06,0.32,0.56,0
0.021452,-0.00089344,0.039532,0.0031198,0.012796,-0.00012003,0,0,0.046344,-0.017516,0,-0.0016138,0,0,0,0.039558,0.003094,0.012796,-0.66629,0.018483,0.032722,1.6977e-06,0.36,0.56,0
0.023329,-0.0012336,0.040981,0.0040398,0.013506,0.00091784,0,0,0.047622,-0.016851,0,0.0030663,0,0,0,0.041004,0.0040166,0.013506,1.3651,0.019509,0.033277,1.8449e-06,0.4,0.56,0
0.025261,-0.0018124,0.037038,0.0022684,0.011792,0.0026175,0,0,0.044897,-0.016532,0,0.0096115,0,0,0,0.037236,0.0020701,0.011792,4.4174,0.017033,0.031456,1.3235e-06,0.44,0.56,0
0.026784,-0.0024866,0.041411,-0.00057406,0.012251,0.0020692,0,0,0.037908,-0.016673,0,0.0053798,0,0,0,0.041513,-0.00067578,0.012251,2.8146,0.017696,0.037438,1.652e-06,0.48,0.56,0
0.028294,-0.0029969,0.041076,-0.0007811,0.012089,0.0019982,0,0,0.037684,-0.01673,0,0.0051953,0,0,0,0.041171,-0.00087628,0.012089,2.727,0.017461,0.037295,1.6197e-06,0.52,0.56,0
0.029799,-0.0034551,0.040965,-0.00075284,0.012063,0.0018503,0,0,0.037571,-0.016661,0,0.0048108,0,0,0,0.041046,-0.00083475,0.012063,2.5346,0.017425,0.037151,1.6034e-06,0.56,0.56,0
0.0313,-0.0038675,0.040938,-0.00035849,0.012174,0.0018788,0,0,0.037394,-0.016292,0,0.0048848,0,0,0,0.041023,-0.00044378,0.012174,2.5995,0.017584,0.036817,1.5853e-06,0.6,0.56,0
0.032791,-0.0042324,0.040857,-3.2451e-05,0.012247,0.0020156,0,0,0.037193,-0.015964,0,0.0052405,0,0,0,0.040956,-0.00013156,0.012247,2.8152,0.017691,0.036508,1.5649e-06,0.64,0.56,0
0.034275,-0.0045521,0.04078,9.576e-06,0.012237,0.0021925,0,0,0.037106,-0.015895,0,0.0057004,0,0,0,0.040898,-0.00010799,0.012237,3.0693,0.017676,0.036437,1.5573e-06,0.68,0.56,0
0.035759,-0.0048334,0.040677,-0.00025509,0.012127,0.0023328,0,0,0.037116,-0.016096,0,0.0060653,0,0,0,0.04081,-0.00038761,0.012127,3.2514,0.017516,0.036582,1.5585e-06,0.72,0.56,0
0.037244,-0.0050892,0.040386,-0.00075244,0.01189,0.0024041,0,0,0.037045,-0.016435,0,0.0062506,0,0,0,0.040526,-0.00089245,0.01189,3.3332,0.017175,0.036735,1.5458e-06,0.76,0.56,0
0.038723,-0.0053335,0.039775,-0.0013726,0.011521,0.0023766,0,0,0.036731,-0.016761,0,0.0061792,0,0,0,0.039912,-0.0015095,0.011521,3.2947,0.016641,0.036685,1.4996e-06,0.8,0.56,0
0.040183,-0.0055927,0.038804,-0.0026391,0.01085,0.0019861,0,0,0.036341,-0.017535,0,0.0051638,0,0,0,0.038899,-0.0027341,0.01085,2.7374,0.015672,0.036774,1.4294e-06,0.84,0.56,0
0.04163,-0.0059575,0.038838,-0.00092227,0.011375,0.001843,0,0,0.053315,-0.021315,0,0.0077442,0,0,0,0.038933,-0.0010176,0.011375,2.7486,0.01643,0.035518,1.3136e-06,0.88,0.56,0
0.044448,-0.005997,0.039085,0.0019625,0.012314,0.00084692,0,0,0.069604,-0.026915,0,0.004404,0,0,0,0.039104,0.0019432,0.012314,1.3062,0.017787,0.033213,1.2817e-06,0.92,0.56,0
0.047198,-0.0057212,0.039218,0.0025373,0.012527,0.0012142,0,0,0.069398,-0.025972,0,0.0063138,0,0,0,0.039258,0.0024971,0.012527,1.8938,0.018094,0.032913,1.2743e-06,0.96,0.56,0
0.05,-0.0056165,0.040056,0.0036661,0.013117,0.00050321,0,0,0.070042,-0.024571,0,0.0026167,0,0,0,0.040063,0.0036592,0.013117,0.7921,0.018946,0.032717,1.3048e-06,1,0.56,0
0,0,0.035647,0.015277,0.015277,-0.0025116,0,0,0.052961,6.5052e-19,0,-0.01306,0,0,0,0.035952,0.014972,0.015277,-6.9264,0.022067,0.020829,4.6378e-07,0,0.6,0
0.0021184,-0.0005224,0.035427,0.013185,0.014584,-0.0025152,0,0,0.054193,-0.0036365,0,-0.013079,0,0,0,0.035708,0.012904,0.014584,-6.3719,0.021065,0.022012,5.3706e-07,0.04,0.6,0
0.0043355,-0.00096488,0.035987,0.011494,0.014244,-0.0023523,0,0,0.056531,-0.0071512,0,-0.012232,0,0,0,0.036211,0.01127,0.014244,-5.4364,0.020575,0.023595,6.3865e-07,0.08,0.6,0
0.0066409,-0.0013278,0.036428,0.0099181,0.013904,-0.0021617,0,0,0.058562,-0.010363,0,-0.011241,0,0,0,0.036603,0.009743,0.013904,-4.6314,0.020083,0.02504,7.3187e-07,0.12,0.6,0
0.0090204,-0.0015983,0.036747,0.0084536,0.01356,-0.0018852,0,0,0.060285,-0.013277,0,-0.0098032,0,0,0,0.036872,0.0083285,0.01356,-3.7954,0.019587,0.02632,8.1315e-07,0.16,0.6,0
0.011464,-0.0017635,0.036838,0.0068898,0.013118,-0.0015137,0,0,0.061671,-0.016194,0,-0.0078713,0,0,0,0.036914,0.0068135,0.013118,-2.8862,0.018949,0.027496,8.8132e-07,0.2,0.6,0
0.013954,-0.0018123,0.036808,0.0053011,0.012633,-0.0012382,0,0,0.062856,-0.019063,0,-0.0064386,0,0,0,0.036857,0.0052525,0.012633,-2.247,0.018247,0.028637,9.4143e-07,0.24,0.6,0
0.016492,-0.0017876,0.035751,0.0031426,0.011668,-0.00095751,0,0,0.062615,-0.022166,0,-0.0049791,0,0,0,0.035779,0.0031145,0.011668,-1.6805,0.016854,0.029338,9.349e-07,0.28,0.6,0
0.018963,-0.0016741,0.035113,0.0018685,0.011095,-0.0014566,0,0,0.062449,-0.023988,0,-0.0075743,0,0,0,0.035177,0.0018048,0.011095,-2.504,0.016026,0.029833,9.3115e-07,0.32,0.6,0
0.021488,-0.0016833,0.034888,0.0023328,0.011166,-0.00046521,0,0,0.061677,-0.022967,0,-0.0024191,0,0,0,0.034895,0.0023262,0.011166,-0.81853,0.016129,0.029171,8.9129e-07,0.36,0.6,0
0.023897,-0.0019607,0.034334,0.0031726,0.011252,0.00021931,0,0,0.060013,-0.021006,0,0.0011404,0,0,0,0.034335,0.003171,0.011252,0.40321,0.016253,0.028012,8.202e-07,0.4,0.6,0
0.026289,-0.0024766,0.03473,0.00071647,0.010634,0.0013438,0,0,0.046274,-0.01719,0,0.0051564,0,0,0,0.034784,0.00066311,0.010634,2.2829,0.01536,0.030452,9.1169e-07,0.44,0.6,0
0.027599,-0.003112,0.03661,-0.00085939,0.010725,0.0011021,0,0,0.03365,-0.01506,0,0.0028654,0,0,0,0.036642,-0.00089177,0.010725,1.6833,0.015492,0.033283,1.1453e-06,0.48,0.6,0
0.028981,-0.0036427,0.038253,-0.0013523,0.01107,0.0014754,0,0,0.035338,-0.016149,0,0.003836,0,0,0,0.038308,-0.0014072,0.01107,2.1304,0.01599,0.035177,1.3246e-06,0.52,0.6,0
0.030426,-0.0041105,0.039481,-0.00092156,0.011568,0.0017128,0,0,0.036288,-0.016236,0,0.0044531,0,0,0,0.039554,-0.00099404,0.011568,2.4231,0.016709,0.035952,1.4417e-06,0.56,0.6,0
0.031884,-0.0045127,0.039866,-0.00045783,0.011822,0.001874,0,0,0.036456,-0.015964,0,0.0048724,0,0,0,0.039953,-0.00054474,0.011822,2.6551,0.017077,0.035946,1.4686e-06,0.6,0.6,0
0.033343,-0.0048679,0.040045,-0.00017771,0.01196,0.0019734,0,0,0.036511,-0.015779,0,0.0051308,0,0,0,0.040142,-0.0002743,0.01196,2.802,0.017276,0.035898,1.4791e-06,0.64,0.6,0
0.034805,-0.0051864,0.040242,-0.00013674,0.012032,0.0020831,0,0,0.036673,-0.015819,0,0.0054162,0,0,0,0.040349,-0.00024393,0.012032,2.9455,0.017379,0.036058,1.5008e-06,0.68,0.6,0
0.036277,-0.0054759,0.040474,-0.00034124,0.01204,0.0022202,0,0,0.036964,-0.016095,0,0.0057725,0,0,0,0.040594,-0.00046165,0.01204,3.1044,0.017391,0.03645,1.5369e-06,0.72,0.6,0
0.037762,-0.005745,0.040747,-0.00072325,0.012007,0.0023882,0,0,0.037361,-0.016549,0,0.0062093,0,0,0,0.040884,-0.00086033,0.012007,3.2851,0.017343,0.037027,1.5856e-06,0.76,0.6,0
0.039266,-0.0060072,0.041073,-0.0012683,0.011941,0.0025786,0,0,0.037871,-0.017173,0,0.0067043,0,0,0,0.041229,-0.0014248,0.011941,3.4722,0.017249,0.037788,1.6478e-06,0.8,0.6,0
0.040792,-0.0062927,0.041335,-0.0021097,0.011768,0.0022739,0,0,0.038438,-0.018041,0,0.005912,0,0,0,0.041454,-0.0022284,0.011768,2.9879,0.016998,0.038635,1.7051e-06,0.84,0.6,0
0.042341,-0.0067511,0.036552,0.00019874,0.011025,0.0024705,0,0,0.045352,-0.019035,0,0.0090481,0,0,0,0.036721,3.0109e-05,0.011025,3.9745,0.015925,0.032615,1.3585e-06,0.88,0.6,0
0.044287,-0.0070417,0.045603,0.0021732,0.014333,0.0006518,0,0,0.056967,-0.021797,0,0.0024418,0,0,0,0.045613,0.0021634,0.014333,0.8769,0.020703,0.038824,2.2751e-06,0.92,0.6,0
0.04723,-0.0067396,0.04076,0.0035584,0.013296,0.00043381,0,0,0.071408,-0.025317,0,0.0022558,0,0,0,0.040765,0.0035533,0.013296,0.668,0.019205,0.033423,1.3826e-06,0.96,0.6,0
0.05,-0.0065235,0.040058,0.0046845,0.013423,0.0010389,0,0,0.069251,-0.022719,0,0.0054022,0,0,0,0.040088,0.004654,0.013423,1.6808,0.019388,0.031965,1.2616e-06,1,0.6,0
0,0,0.035023,0.01501,0.01501,-0.0031875,0,0,0.052034,6.5052e-19,0,-0.016575,0,0,0,0.035518,0.014514,0.01501,-8.8344,0.021681,0.020761,4.5867e-07,0,0.64,0
0.0020814,-0.00066299,0.034827,0.013001,0.014349,-0.0031496,0,0,0.053245,-0.0035037,0,-0.016378,0,0,0,0.035273,0.012556,0.014349,-8.0491,0.020726,0.021876,5.2552e-07,0.04,0.64,0
0.0042596,-0.0012451,0.035391,0.011295,0.014006,-0.0028948,0,0,0.055601,-0.0070472,0,-0.015053,0,0,0,0.035734,0.010952,0.014006,-6.7553,0.020231,0.023404,6.2081e-07,0.08,0.64,0
0.0065294,-0.001739,0.035872,0.0096387,0.013653,-0.0025692,0,0,0.057769,-0.010438,0,-0.01336,0,0,0,0.036121,0.0093895,0.013653,-5.5412,0.019721,0.024875,7.1291e-07,0.12,0.64,0
0.0088811,-0.0021326,0.036232,0.0080354,0.01328,-0.0021442,0,0,0.059674,-0.013636,0,-0.01115,0,0,0,0.036394,0.0078733,0.01328,-4.3239,0.019183,0.026238,7.9657e-07,0.16,0.64,0
0.011303,-0.0024137,0.036479,0.0064767,0.012887,-0.0016492,0,0,0.06134,-0.016666,0,-0.0085758,0,0,0,0.036569,0.0063863,0.012887,-3.1369,0.018614,0.027515,8.7188e-07,0.2,0.64,0
0.013788,-0.0025832,0.036518,0.0048601,0.012413,-0.0011132,0,0,0.062672,-0.019639,0,-0.0057887,0,0,0,0.036557,0.004821,0.012413,-2.0114,0.017931,0.028703,9.3411e-07,0.24,0.64,0
0.016317,-0.002648,0.036687,0.0035028,0.012057,-0.00067198,0,0,0.064039,-0.022241,0,-0.0034943,0,0,0,0.036701,0.0034892,0.012057,-1.1596,0.017416,0.029864,9.9791e-07,0.28,0.64,0
0.018911,-0.0026629,0.036717,0.0018985,0.011585,-0.00030028,0,0,0.065344,-0.025184,0,-0.0015615,0,0,0,0.03672,0.0018959,0.011585,-0.49408,0.016733,0.031131,1.0587e-06,0.32,0.64,0
0.021545,-0.0027308,0.036951,0.001249,0.01146,-0.00034141,0,0,0.066277,-0.026549,0,-0.0017753,0,0,0,0.036955,0.0012457,0.01146,-0.54784,0.016553,0.031855,1.1029e-06,0.36,0.64,0
0.024214,-0.0029141,0.03724,0.0022701,0.011853,-0.00017552,0,0,0.066007,-0.024916,0,-0.00091272,0,0,0,0.037241,0.0022692,0.011853,-0.28757,0.017121,0.031301,1.0915e-06,0.4,0.64,0
0.026825,-0.0031876,0.036669,0.00029532,0.011089,-0.00071694,0,0,0.049576,-0.01871,0,-0.0015263,0,0,0,0.036706,0.00025887,0.011089,-0.96665,0.016018,0.032503,1.0714e-06,0.44,0.64,0
0.02818,-0.0036914,0.03767,-0.0010181,0.010996,0.00040185,0,0,0.034677,-0.015618,0,0.0010448,0,0,0,0.037674,-0.0010223,0.010996,0.59504,0.015883,0.034305,1.2482e-06,0.48,0.64,0
0.029599,-0.0042888,0.038376,-0.0016659,0.011013,0.00074063,0,0,0.035572,-0.016483,0,0.0019256,0,0,0,0.038389,-0.0016796,0.011013,1.0593,0.015908,0.035469,1.3419e-06,0.52,0.64,0
0.031025,-0.004754,0.038708,-0.0009505,0.011327,0.0014334,0,0,0.035595,-0.015961,0,0.0037268,0,0,0,0.03876,-0.0010022,0.011327,2.0673,0.016362,0.035254,1.3576e-06,0.56,0.64,0
0.032447,-0.0051447,0.03893,-0.00048941,0.011532,0.0016308,0,0,0.035617,-0.015628,0,0.0042402,0,0,0,0.038997,-0.00055676,0.011532,2.365,0.016657,0.035107,1.3666e-06,0.6,0.64,0
0.033875,-0.0054948,0.039318,-0.00022915,0.011727,0.0016717,0,0,0.035868,-0.015542,0,0.0043464,0,0,0,0.039388,-0.00029969,0.011727,2.4162,0.016938,0.035249,1.3985e-06,0.64,0.64,0
0.035317,-0.0058176,0.039812,-0.00020356,0.011883,0.0017026,0,0,0.036309,-0.015712,0,0.0044267,0,0,0,0.039885,-0.00027587,0.011883,2.432,0.017164,0.035671,1.4509e-06,0.68,0.64,0
0.036779,-0.006121,0.040434,-0.00039725,0.012011,0.0017534,0,0,0.03695,-0.016131,0,0.0045589,0,0,0,0.040509,-0.00047241,0.012011,2.4545,0.017349,0.036383,1.5277e-06,0.72,0.64,0
0.038272,-0.0064131,0.041256,-0.00076518,0.012147,0.0018178,0,0,0.037841,-0.016786,0,0.0047263,0,0,0,0.041335,-0.00084367,0.012147,2.4724,0.017546,0.037414,1.6376e-06,0.76,0.64,0
0.039807,-0.0067073,0.042445,-0.0011977,0.012374,0.0018044,0,0,0.039092,-0.017643,0,0.0046913,0,0,0,0.042519,-0.0012722,0.012374,2.3634,0.017874,0.038811,1.7993e-06,0.8,0.64,0
0.0414,-0.0070359,0.043799,-0.0015867,0.012664,0.0015244,0,0,0.040476,-0.018526,0,0.0039635,0,0,0,0.04385,-0.0016378,0.012664,1.9216,0.018292,0.040288,1.9878e-06,0.84,0.64,0
0.043045,-0.007448,0.044723,5.7567e-05,0.013434,0.0016171,0,0,0.040675,-0.01739,0,0.0042045,0,0,0,0.044781,-9.0379e-07,0.013434,2.0708,0.019405,0.039803,2.0387e-06,0.88,0.64,0
0.044654,-0.0078272,0.04109,0.0025574,0.013094,0.0021039,0,0,0.050186,-0.018607,0,0.0082647,0,0,0,0.041214,0.0024338,0.013094,3.3427,0.018914,0.034702,1.7375e-06,0.92,0.64,0
0.04686,-0.0077465,0.051399,0.0038745,0.016582,-0.00026681,0,0,0.06294,-0.022476,0,-0.00099631,0,0,0,0.051401,0.003873,0.016582,-0.33024,0.023952,0.042622,3.2183e-06,0.96,0.64,0
0.05,-0.0074341,0.045865,0.0063945,0.015678,0.0015022,0,0,0.078487,-0.024137,0,0.0078114,0,0,0,0.045922,0.0063374,0.015678,2.1764,0.022646,0.035839,1.834e-06,1,0.64,0
0,0,0.03455,0.014807,0.014807,-0.0038591,0,0,0.051332,-1.0842e-18,0,-0.020067,0,0,0,0.035278,0.01408,0.014807,-10.676,0.021388,0.020844,4.632e-07,0,0.68,0
0.0020533,-0.0008027,0.034367,0.012765,0.014139,-0.0037881,0,0,0.052591,-0.003574,0,-0.019698,0,0,0,0.035012,0.01212,0.014139,-9.6633,0.020424,0.021952,5.2782e-07,0.04,0.68,0
0.0042073,-0.0015287,0.034971,0.010982,0.013786,-0.0034686,0,0,0.055081,-0.0072895,0,-0.018037,0,0,0,0.035462,0.010491,0.013786,-8.0647,0.019913,0.023498,6.2241e-07,0.08,0.68,0
0.0064598,-0.0021629,0.035513,0.0092122,0.013418,-0.0030365,0,0,0.057448,-0.010934,0,-0.01579,0,0,0,0.035859,0.0088662,0.013418,-6.501,0.019381,0.025029,7.1639e-07,0.12,0.68,0
0.0088031,-0.0026892,0.035971,0.0075132,0.013045,-0.0024966,0,0,0.059606,-0.014383,0,-0.012982,0,0,0,0.036188,0.0072959,0.013045,-4.976,0.018843,0.026489,8.0513e-07,0.16,0.68,0
0.011228,-0.0030967,0.036332,0.0058923,0.012667,-0.0018822,0,0,0.061528,-0.017615,0,-0.0097876,0,0,0,0.036448,0.0057764,0.012667,-3.525,0.018297,0.027872,8.8713e-07,0.2,0.68,0
0.013725,-0.0033834,0.036663,0.0043911,0.012316,-0.0012686,0,0,0.063302,-0.020605,0,-0.0065968,0,0,0,0.036713,0.0043413,0.012316,-2.2477,0.01779,0.029212,9.6588e-07,0.24,0.68,0
0.016292,-0.0035669,0.036949,0.0029482,0.011969,-0.00073931,0,0,0.064947,-0.023454,0,-0.0038444,0,0,0,0.036965,0.0029321,0.011969,-1.2451,0.017289,0.030534,1.0419e-06,0.28,0.68,0
0.018921,-0.0036888,0.037182,0.0017415,0.011677,-0.00047467,0,0,0.066313,-0.025832,0,-0.0024683,0,0,0,0.037188,0.0017351,0.011677,-0.76721,0.016867,0.031675,1.1065e-06,0.32,0.68,0
0.021597,-0.0038073,0.037364,0.0012842,0.011595,-0.0004562,0,0,0.067002,-0.026807,0,-0.0023723,0,0,0,0.03737,0.0012784,0.011595,-0.7243,0.016748,0.032198,1.1398e-06,0.36,0.68,0
0.024281,-0.003954,0.037602,0.002048,0.011895,-0.00030101,0,0,0.066838,-0.025602,0,-0.0015653,0,0,0,0.037604,0.0020454,0.011895,-0.48504,0.017181,0.0318,1.1331e-06,0.4,0.68,0
0.026944,-0.0039734,0.042132,0.001065,0.012959,-0.0017776,0,0,0.052854,-0.021103,0,-0.005883,0,0,0,0.042213,0.00098409,0.012959,-2.3389,0.018719,0.036739,1.8871e-06,0.44,0.68,0
0.028784,-0.0043615,0.033573,-0.0010086,0.0097694,0.00082979,0,0,0.042443,-0.019068,0,0.0034293,0,0,0,0.033597,-0.0010327,0.0097694,1.5448,0.014111,0.03069,1.0614e-06,0.48,0.68,0
0.030198,-0.0049613,0.037445,-0.0022524,0.010558,0.00044102,0,0,0.034953,-0.016653,0,0.0011466,0,0,0,0.03745,-0.0022573,0.010558,0.63642,0.01525,0.0351,1.2645e-06,0.52,0.68,0
0.03158,-0.0053874,0.037513,-0.0011321,0.010914,0.0010858,0,0,0.034579,-0.01566,0,0.002823,0,0,0,0.037544,-0.0011626,0.010914,1.6081,0.015765,0.034301,1.24e-06,0.56,0.68,0
0.032964,-0.005763,0.038005,-0.00052338,0.011244,0.0011449,0,0,0.034789,-0.015298,0,0.0029767,0,0,0,0.038039,-0.00055737,0.011244,1.7006,0.016242,0.034256,1.2688e-06,0.6,0.68,0
0.034363,-0.0061113,0.038654,-0.00023327,0.011526,0.0011259,0,0,0.035266,-0.015287,0,0.0029273,0,0,0,0.038686,-0.00026584,0.011526,1.657,0.016649,0.034598,1.324e-06,0.64,0.68,0
0.035785,-0.0064434,0.039392,-0.00018681,0.011761,0.0010709,0,0,0.03592,-0.015533,0,0.0027844,0,0,0,0.039421,-0.00021577,0.011761,1.5488,0.016989,0.03521,1.3988e-06,0.68,0.68,0
0.037237,-0.0067663,0.04024,-0.00037421,0.01196,0.00098694,0,0,0.036765,-0.016034,0,0.002566,0,0,0,0.040264,-0.00039818,0.01196,1.3912,0.017275,0.036106,1.4974e-06,0.72,0.68,0
0.038727,-0.0070878,0.041262,-0.00073291,0.012159,0.00084875,0,0,0.037834,-0.016759,0,0.0022067,0,0,0,0.041279,-0.00075006,0.012159,1.1574,0.017563,0.03729,1.6273e-06,0.76,0.68,0
0.040264,-0.0074186,0.042408,-0.001146,0.012379,0.00058227,0,0,0.039038,-0.017582,0,0.0015139,0,0,0,0.042415,-0.0011538,0.012379,0.7658,0.01788,0.038624,1.7814e-06,0.8,0.68,0
0.04185,-0.0077747,0.043517,-0.0011699,0.012704,0.00020222,0,0,0.040057,-0.018036,0,0.00052576,0,0,0,0.043518,-0.0011709,0.012704,0.25927,0.01835,0.039617,1.9234e-06,0.84,0.68,0
0.043468,-0.0081423,0.045193,0.00029385,0.013646,-8.7898e-05,0,0,0.041011,-0.017358,0,-0.00022853,0,0,0,0.045193,0.00029368,0.013646,-0.11217,0.019711,0.039934,2.0807e-06,0.88,0.68,0
0.045131,-0.0084891,0.045799,0.0017268,0.014258,0.0010442,0,0,0.041004,-0.01629,0,0.002715,0,0,0,0.045824,0.0017021,0.014258,1.3565,0.020595,0.039375,2.0943e-06,0.92,0.68,0
0.046749,-0.0085916,0.046115,0.0036361,0.014925,0.00015993,0,0,0.060868,-0.019568,0,0.001553,0,0,0,0.046128,0.0036229,0.014925,0.30134,0.021559,0.038226,1.9675e-06,0.96,0.68,0
0.05,-0.0084544,0.047712,0.007116,0.016449,0.00065946,0,0,0.081286,-0.024265,0,0.0034292,0,0,0,0.047723,0.0071052,0.016449,0.9304,0.023759,0.036846,2.0229e-06,1,0.68,0
0,0,0.034229,0.01467,0.01467,-0.0045621,0,0,0.050854,1.0842e-18,0,-0.023723,0,0,0,0.035241,0.013658,0.01467,-12.504,0.021189,0.021095,4.784e-07,0,0.72,0
0.0020342,-0.00094891,0.034042,0.012496,0.013961,-0.0044648,0,0,0.05221,-0.0038106,0,-0.023217,0,0,0,0.034931,0.011607,0.013961,-11.255,0.020167,0.02224,5.437e-07,0.04,0.72,0
0.0041768,-0.0018282,0.034701,0.010573,0.013582,-0.0040969,0,0,0.054908,-0.0078237,0,-0.021304,0,0,0,0.035377,0.0098963,0.013582,-9.3788,0.019619,0.023853,6.4125e-07,0.08,0.72,0
0.0064268,-0.0026137,0.035304,0.0086636,0.01319,-0.0035723,0,0,0.057495,-0.011769,0,-0.018576,0,0,0,0.035774,0.0081929,0.01319,-7.5064,0.019052,0.025453,7.3811e-07,0.12,0.72,0
0.0087764,-0.0032833,0.035824,0.0068633,0.012806,-0.0029255,0,0,0.059846,-0.015451,0,-0.015213,0,0,0,0.036116,0.0065707,0.012806,-5.711,0.018498,0.026974,8.2927e-07,0.16,0.72,0
0.011215,-0.0038229,0.036265,0.0052227,0.012446,-0.0022251,0,0,0.061929,-0.018781,0,-0.01157,0,0,0,0.036424,0.005064,0.012446,-4.0791,0.017978,0.028398,9.1363e-07,0.2,0.72,0
0.013731,-0.0042316,0.036636,0.0037451,0.012114,-0.0015553,0,0,0.063756,-0.02176,0,-0.0080877,0,0,0,0.036709,0.0036717,0.012114,-2.7013,0.017499,0.02973,9.9163e-07,0.24,0.72,0
0.016315,-0.0045244,0.036934,0.0024664,0.01182,-0.0010143,0,0,0.065296,-0.02432,0,-0.0052742,0,0,0,0.036964,0.0024366,0.01182,-1.6841,0.017073,0.030922,1.0604e-06,0.28,0.72,0
0.018954,-0.0047294,0.037084,0.0015119,0.011579,-0.0006504,0,0,0.066313,-0.026173,0,-0.0033821,0,0,0,0.037095,0.0015,0.011579,-1.0471,0.016725,0.031778,1.1066e-06,0.32,0.72,0
0.02162,-0.0048754,0.036874,0.0011002,0.011392,-0.00040604,0,0,0.066252,-0.026759,0,-0.0021114,0,0,0,0.036878,0.0010956,0.011392,-0.65021,0.016455,0.031906,1.1013e-06,0.36,0.72,0
0.024254,-0.0049622,0.036171,0.001458,0.011289,-2.21e-05,0,0,0.064694,-0.02556,0,-0.00011492,0,0,0,0.036171,0.001458,0.011289,-0.036476,0.016306,0.03099,1.0261e-06,0.4,0.72,0
0.026796,-0.0049342,0.035861,0.0016076,0.011241,-0.00032156,0,0,0.064013,-0.025046,0,-0.0016721,0,0,0,0.035864,0.0016046,0.011241,-0.53781,0.016237,0.030601,9.948e-07,0.44,0.72,0
0.029376,-0.0051705,0.03521,-0.0021823,0.0099084,0.00029175,0,0,0.049018,-0.020957,0,0.0019044,0,0,0,0.035223,-0.0021951,0.0099084,0.56389,0.014312,0.033168,9.9743e-07,0.48,0.72,0
0.030717,-0.0056211,0.035489,-0.003004,0.0097456,6.7288e-05,0,0,0.033467,-0.016574,0,0.00017495,0,0,0,0.03549,-0.0030041,0.0097456,0.10015,0.014077,0.033964,1.0984e-06,0.52,0.72,0
0.032053,-0.0060068,0.036395,-0.001362,0.01051,0.00035309,0,0,0.033651,-0.015433,0,0.00091804,0,0,0,0.036399,-0.0013653,0.01051,0.53575,0.015181,0.033446,1.137e-06,0.56,0.72,0
0.033409,-0.0063685,0.037323,-0.00061886,0.011011,0.00044658,0,0,0.034205,-0.015119,0,0.0011611,0,0,0,0.037328,-0.00062412,0.011011,0.67426,0.015905,0.033677,1.2016e-06,0.6,0.72,0
0.034789,-0.0067177,0.038175,-0.00019447,0.011394,0.00043093,0,0,0.034815,-0.015065,0,0.0011204,0,0,0,0.03818,-0.00019931,0.011394,0.64338,0.016458,0.034095,1.2705e-06,0.64,0.72,0
0.036194,-0.0070602,0.038977,-7.4837e-05,0.011671,0.00031673,0,0,0.035498,-0.015269,0,0.00082349,0,0,0,0.038979,-7.7405e-05,0.011671,0.46465,0.016858,0.034708,1.3473e-06,0.68,0.72,0
0.037629,-0.0074037,0.03984,-0.00021251,0.011888,0.00010453,0,0,0.036337,-0.015731,0,0.00027177,0,0,0,0.03984,-0.00021278,0.011888,0.14952,0.017172,0.035581,1.4437e-06,0.72,0.72,0
0.039101,-0.0077539,0.040781,-0.00053527,0.012074,-0.00018925,0,0,0.037319,-0.016392,0,-0.00049204,0,0,0,0.040782,-0.00053614,0.012074,-0.26243,0.01744,0.036676,1.5611e-06,0.76,0.72,0
0.040615,-0.0081139,0.041731,-0.0008404,0.012267,-0.00053994,0,0,0.038303,-0.01704,0,-0.0014039,0,0,0,0.041737,-0.00084725,0.012267,-0.72654,0.017719,0.037775,1.6857e-06,0.8,0.72,0
0.042166,-0.0084788,0.042627,-0.00073608,0.012567,-0.00089297,0,0,0.039078,-0.017294,0,-0.0023217,0,0,0,0.042645,-0.00075446,0.012567,-1.1792,0.018153,0.038508,1.7934e-06,0.84,0.72,0
0.043741,-0.0088366,0.043308,-6.7058e-05,0.012972,-0.00096753,0,0,0.039436,-0.016951,0,-0.0025156,0,0,0,0.043329,-8.863e-05,0.012972,-1.2772,0.018738,0.038583,1.8507e-06,0.88,0.72,0
0.04532,-0.0091304,0.044595,0.001198,0.013738,-0.00071614,0,0,0.040114,-0.016302,0,-0.001862,0,0,0,0.044607,0.0011861,0.013738,-0.94517,0.019844,0.038702,1.9559e-06,0.92,0.72,0
0.04695,-0.009312,0.045321,0.0046375,0.014988,3.4713e-05,0,0,0.058495,-0.01794,0,0.00061314,0,0,0,0.045324,0.004634,0.014988,0.10684,0.021649,0.036696,1.8299e-06,0.96,0.72,0
0.05,-0.0093752,0.0451,0.0074788,0.015773,-0.00030417,0,0,0.076248,-0.021566,0,-0.0015817,0,0,0,0.045102,0.0074763,0.015773,-0.4632,0.022784,0.03424,1.6606e-06,1,0.72,0
0,0,0.03406,0.014597,0.014597,-0.0053247,0,0,0.050604,-4.3368e-19,0,-0.027689,0,0,0,0.035422,0.013236,0.014597,-14.343,0.021085,0.021538,5.0621e-07,0,0.76,0
0.0020242,-0.0011075,0.033855,0.012205,0.013818,-0.0052007,0,0,0.052097,-0.0041939,0,-0.027044,0,0,0,0.03504,0.011021,0.013818,-12.831,0.01996,0.02275,5.7402e-07,0.04,0.76,0
0.0041678,-0.0021545,0.034565,0.010066,0.01339,-0.0047812,0,0,0.055057,-0.0086403,0,-0.024862,0,0,0,0.035465,0.0091662,0.01339,-10.661,0.01934,0.024463,6.7692e-07,0.08,0.76,0
0.0064287,-0.0031044,0.035201,0.0079787,0.012954,-0.0041481,0,0,0.057843,-0.012936,0,-0.02157,0,0,0,0.035819,0.0073607,0.012954,-8.4743,0.018711,0.026115,7.7519e-07,0.12,0.76,0
0.0087952,-0.0039254,0.03573,0.0060903,0.012546,-0.0033778,0,0,0.060278,-0.016785,0,-0.017565,0,0,0,0.03611,0.0057102,0.012546,-6.4199,0.018122,0.027623,8.6316e-07,0.16,0.76,0
0.011251,-0.0045993,0.036145,0.0044575,0.012181,-0.0025783,0,0,0.062308,-0.020081,0,-0.013407,0,0,0,0.036354,0.0042491,0.012181,-4.6214,0.017595,0.028965,9.3974e-07,0.2,0.76,0
0.01378,-0.0051242,0.036468,0.0030848,0.011866,-0.0018509,0,0,0.063966,-0.022831,0,-0.0096249,0,0,0,0.03657,0.0029825,0.011866,-3.1638,0.01714,0.030145,1.0059e-06,0.24,0.76,0
0.016368,-0.0055124,0.036714,0.0019855,0.01161,-0.0012582,0,0,0.065271,-0.025023,0,-0.0065426,0,0,0,0.036759,0.0019399,0.01161,-2.0722,0.01677,0.031132,1.0606e-06,0.28,0.76,0
0.019002,-0.0057827,0.036881,0.0012314,0.011434,-0.00079432,0,0,0.066163,-0.026526,0,-0.0041305,0,0,0,0.036899,0.0012137,0.011434,-1.2758,0.016515,0.03183,1.099e-06,0.32,0.76,0
0.021661,-0.005948,0.037012,0.00095423,0.01139,-0.00033154,0,0,0.066617,-0.027133,0,-0.001724,0,0,0,0.037015,0.00095118,0.01139,-0.52677,0.016452,0.032142,1.1188e-06,0.36,0.76,0
0.024331,-0.0059988,0.037302,0.0011775,0.011544,0.00022166,0,0,0.06697,-0.026952,0,0.0011527,0,0,0,0.037303,0.0011762,0.011544,0.35156,0.016674,0.032219,1.1373e-06,0.4,0.76,0
0.027019,-0.0059771,0.036858,0.0011888,0.011414,0.00064557,0,0,0.066155,-0.026586,0,0.003357,0,0,0,0.03687,0.0011771,0.011414,1.0365,0.016487,0.031834,1.0976e-06,0.44,0.76,0
0.029623,-0.006038,0.036674,-0.0018352,0.010452,0.00026864,0,0,0.050367,-0.021297,0,0.0017156,0,0,0,0.036684,-0.0018451,0.010452,0.51358,0.015097,0.03417,1.1297e-06,0.48,0.76,0
0.031048,-0.0062872,0.037081,-0.0025158,0.01037,-0.00036783,0,0,0.034725,-0.016751,0,-0.00095634,0,0,0,0.037084,-0.0025192,0.01037,-0.53218,0.014978,0.034987,1.236e-06,0.52,0.76,0
0.032401,-0.006622,0.036679,-0.0015879,0.010527,-0.00037567,0,0,0.033997,-0.01575,0,-0.00097674,0,0,0,0.036682,-0.0015915,0.010527,-0.56241,0.015206,0.033881,1.1703e-06,0.56,0.76,0
0.033768,-0.0069725,0.037404,-0.00065585,0.011024,-0.00023945,0,0,0.034293,-0.015184,0,-0.00062257,0,0,0,0.037406,-0.00065736,0.011024,-0.36045,0.015924,0.033773,1.2101e-06,0.6,0.76,0
0.035145,-0.0073165,0.037997,-0.00010145,0.011369,-0.00020992,0,0,0.034617,-0.014911,0,-0.00054579,0,0,0,0.037998,-0.00010261,0.011369,-0.31568,0.016422,0.033856,1.2491e-06,0.64,0.76,0
0.036537,-0.0076649,0.038633,0.0001537,0.011636,-0.00039239,0,0,0.035096,-0.014927,0,-0.0010202,0,0,0,0.038637,0.0001497,0.011636,-0.58419,0.016807,0.034222,1.3039e-06,0.68,0.76,0
0.037952,-0.0080248,0.039323,8.4711e-05,0.011822,-0.0007072,0,0,0.03575,-0.015259,0,-0.0018387,0,0,0,0.039335,7.1968e-05,0.011822,-1.0322,0.017076,0.034904,1.3789e-06,0.72,0.76,0
0.039397,-0.0083992,0.040089,-0.00017684,0.011974,-0.0010895,0,0,0.03655,-0.015796,0,-0.0028327,0,0,0,0.040118,-0.0002063,0.011974,-1.5488,0.017295,0.035823,1.4738e-06,0.76,0.76,0
0.040876,-0.0087818,0.040862,-0.00046617,0.012119,-0.0014577,0,0,0.037366,-0.016361,0,-0.0037899,0,0,0,0.040914,-0.00051752,0.012119,-2.0175,0.017505,0.036779,1.5755e-06,0.8,0.76,0
0.042387,-0.0091583,0.041568,-0.00051569,0.012316,-0.0016558,0,0,0.038028,-0.016681,0,-0.0043051,0,0,0,0.041633,-0.00058074,0.012316,-2.2497,0.017789,0.037469,1.6623e-06,0.84,0.76,0
0.043919,-0.0094983,0.042116,-0.00013408,0.012595,-0.0016706,0,0,0.038378,-0.016547,0,-0.0043437,0,0,0,0.042182,-0.00020003,0.012595,-2.2609,0.018192,0.037652,1.7125e-06,0.88,0.76,0
0.045457,-0.0097933,0.043218,0.00071928,0.013181,-0.0014055,0,0,0.039048,-0.0162,0,-0.0036543,0,0,0,0.043265,0.00067285,0.013181,-1.8921,0.01904,0.037918,1.8073e-06,0.92,0.76,0
0.047042,-0.010027,0.043814,0.0040181,0.01435,-0.0011356,0,0,0.056788,-0.017908,0,-0.0036008,0,0,0,0.043853,0.0039792,0.01435,-1.549,0.020727,0.035901,1.6827e-06,0.96,0.76,0
0.05,-0.01018,0.043643,0.0070403,0.015205,-0.00073532,0,0,0.07394,-0.021228,0,-0.0038237,0,0,0,0.043658,0.0070256,0.015205,-1.1504,0.021963,0.033305,1.5185e-06,1,0.76,0
0,0,0.034078,0.014605,0.014605,-0.0061751,0,0,0.05063,-8.6736e-19,0,-0.032111,0,0,0,0.035871,0.012812,0.014605,-16.192,0.021096,0.022217,5.5088e-07,0,0.8,0
0.0020252,-0.0012844,0.033836,0.011888,0.013717,-0.0060095,0,0,0.052308,-0.004756,0,-0.031249,0,0,0,0.035373,0.01035,0.013717,-14.353,0.019813,0.023521,6.2243e-07,0.04,0.8,0
0.0041847,-0.0025195,0.034578,0.00942,0.013199,-0.0055051,0,0,0.055585,-0.0098267,0,-0.028626,0,0,0,0.03573,0.0082681,0.013199,-11.818,0.019066,0.025359,7.3191e-07,0.08,0.8,0
0.006472,-0.0036486,0.0352,0.0071102,0.012693,-0.004704,0,0,0.058518,-0.014516,0,-0.024461,0,0,0,0.035967,0.0063434,0.012693,-9.2584,0.018335,0.027014,8.2702e-07,0.12,0.8,0
0.0088661,-0.0046261,0.035653,0.0051657,0.012246,-0.0037578,0,0,0.060859,-0.018408,0,-0.019541,0,0,0,0.03611,0.0047093,0.012246,-6.9241,0.017688,0.028392,9.0222e-07,0.16,0.8,0
0.011341,-0.0054293,0.035943,0.0036129,0.011867,-0.0028315,0,0,0.062597,-0.02146,0,-0.014724,0,0,0,0.036189,0.0033668,0.011867,-4.9678,0.017141,0.029505,9.5942e-07,0.2,0.8,0
0.013874,-0.0060581,0.036121,0.002402,0.011557,-0.002039,0,0,0.063867,-0.023803,0,-0.010603,0,0,0,0.036244,0.0022791,0.011557,-3.4479,0.016693,0.030407,1.0036e-06,0.24,0.8,0
0.01645,-0.0065262,0.036256,0.0014942,0.011325,-0.0014213,0,0,0.06482,-0.02556,0,-0.0073907,0,0,0,0.036314,0.0014362,0.011325,-2.3375,0.016358,0.031134,1.0392e-06,0.28,0.8,0
0.01906,-0.0068515,0.03643,0.00089958,0.011199,-0.00095025,0,0,0.065601,-0.026778,0,-0.0049413,0,0,0,0.036455,0.00087418,0.011199,-1.5309,0.016176,0.031706,1.0709e-06,0.32,0.8,0
0.021698,-0.007046,0.036789,0.00064386,0.01123,-0.0005566,0,0,0.066454,-0.027524,0,-0.0028943,0,0,0,0.036798,0.00063529,0.01123,-0.88202,0.016221,0.0322,1.1098e-06,0.36,0.8,0
0.024376,-0.0071184,0.037394,0.00063065,0.011407,-0.00014048,0,0,0.067565,-0.028019,0,-0.00073052,0,0,0,0.037394,0.00063011,0.011407,-0.21894,0.016477,0.032734,1.1652e-06,0.4,0.8,0
0.027103,-0.0070611,0.037862,0.0010489,0.011673,0.00032822,0,0,0.06809,-0.027623,0,0.0017067,0,0,0,0.037865,0.0010459,0.011673,0.51079,0.016861,0.032822,1.1949e-06,0.44,0.8,0
0.029823,-0.0068743,0.037052,-0.0020495,0.010501,-8.5877e-05,0,0,0.051514,-0.021753,0,0.00084253,0,0,0,0.037073,-0.0020705,0.010501,0.030096,0.015168,0.034717,1.1565e-06,0.48,0.8,0
0.031224,-0.0069611,0.037847,-0.0026217,0.010568,0.00026561,0,0,0.035463,-0.017146,0,0.00069059,0,0,0,0.037849,-0.0026235,0.010568,0.37603,0.015264,0.035751,1.3156e-06,0.52,0.8,0
0.03266,-0.0072668,0.038246,-0.00144,0.011042,-0.00065674,0,0,0.035365,-0.016226,0,-0.0017075,0,0,0,0.038257,-0.0014508,0.011042,-0.94781,0.015949,0.035167,1.3208e-06,0.56,0.8,0
0.034054,-0.0075833,0.037852,-0.00071893,0.01114,-0.00052234,0,0,0.034726,-0.015416,0,-0.0013581,0,0,0,0.037859,-0.000726,0.01114,-0.77573,0.016091,0.034231,1.2567e-06,0.6,0.8,0
0.035438,-0.0079106,0.03808,0.00015888,0.011472,-0.00064653,0,0,0.034591,-0.014707,0,-0.001681,0,0,0,0.038091,0.00014786,0.011472,-0.97647,0.01657,0.033738,1.2494e-06,0.64,0.8,0
0.036821,-0.0082544,0.038363,0.00046666,0.011649,-0.00093796,0,0,0.034729,-0.014537,0,-0.0024387,0,0,0,0.038386,0.00044345,0.011649,-1.4169,0.016826,0.033765,1.268e-06,0.68,0.8,0
0.038216,-0.0086244,0.038795,0.00043624,0.011769,-0.0013182,0,0,0.035133,-0.014733,0,-0.0034274,0,0,0,0.03884,0.00039099,0.011769,-1.966,0.017,0.03421,1.3156e-06,0.72,0.8,0
0.039632,-0.0090175,0.039313,0.00024746,0.011868,-0.0017382,0,0,0.035678,-0.015107,0,-0.0045194,0,0,0,0.03939,0.00017026,0.011868,-2.5427,0.017143,0.034875,1.381e-06,0.76,0.8,0
0.041071,-0.0094227,0.039898,-4.3575e-05,0.011956,-0.0021279,0,0,0.036325,-0.0156,0,-0.0055325,0,0,0,0.040011,-0.00015662,0.011956,-3.041,0.01727,0.035688,1.4602e-06,0.8,0.8,0
0.042538,-0.0098133,0.040464,-0.00038522,0.012024,-0.0023537,0,0,0.036972,-0.016132,0,-0.0061197,0,0,0,0.040599,-0.00052039,0.012024,-3.2869,0.017368,0.036502,1.5398e-06,0.84,0.8,0
0.044028,-0.01016,0.041437,-7.3268e-05,0.012409,-0.0022292,0,0,0.037736,-0.016227,0,-0.0057959,0,0,0,0.041556,-0.00019264,0.012409,-3.0652,0.017924,0.03709,1.6372e-06,0.88,0.8,0
0.045556,-0.010427,0.041674,0.00044351,0.012635,-0.0027424,0,0,0.03775,-0.015849,0,-0.0071303,0,0,0,0.041856,0.0002619,0.012635,-3.7887,0.018251,0.036993,1.6534e-06,0.92,0.8,0
0.047049,-0.010745,0.04166,0.0020863,0.013124,-0.0011642,0,0,0.055544,-0.019132,0,-0.0040809,0,0,0,0.041696,0.0020506,0.013124,-1.6494,0.018957,0.035522,1.5032e-06,0.96,0.8,0
0.05,-0.011074,0.043013,0.0057635,0.014633,-0.0015813,0,0,0.073787,-0.02306,0,-0.0082227,0,0,0,0.043079,0.0056965,0.014633,-2.4265,0.021136,0.033813,1.5277e-06,1,0.8,0
0,0,0.034389,0.014738,0.014738,-0.007154,0,0,0.051092,8.6736e-19,0,-0.037201,0,0,0,0.036717,0.01241,0.014738,-18.029,0.021288,0.023231,6.2217e-07,0,0.84,0
0.0020437,-0.001488,0.034062,0.011499,0.013668,-0.0069042,0,0,0.053023,-0.0056394,0,-0.035902,0,0,0,0.036007,0.0095542,0.013668,-15.734,0.019743,0.024654,6.9797e-07,0.04,0.84,0
0.0042418,-0.0029407,0.034796,0.008517,0.012994,-0.0062189,0,0,0.056685,-0.01164,0,-0.032338,0,0,0,0.036193,0.0071196,0.012994,-12.664,0.018769,0.026627,8.1278e-07,0.08,0.84,0
0.0065785,-0.0042656,0.035323,0.0059641,0.012386,-0.0051307,0,0,0.059636,-0.016697,0,-0.02668,0,0,0,0.036194,0.0050933,0.012386,-9.6326,0.017891,0.028171,8.9407e-07,0.12,0.84,0
0.0090127,-0.005398,0.035576,0.0040602,0.011891,-0.0039279,0,0,0.061582,-0.02036,0,-0.020425,0,0,0,0.036059,0.003578,0.011891,-6.9983,0.017176,0.029225,9.4087e-07,0.16,0.84,0
0.011505,-0.006316,0.035608,0.002703,0.011493,-0.0028616,0,0,0.062698,-0.022855,0,-0.01488,0,0,0,0.035855,0.002456,0.011493,-4.9335,0.016601,0.029922,9.646e-07,0.2,0.84,0
0.014029,-0.0070284,0.035525,0.001717,0.011173,-0.0020302,0,0,0.063316,-0.024585,0,-0.010557,0,0,0,0.035647,0.0015955,0.011173,-3.4243,0.016138,0.030415,9.7678e-07,0.24,0.84,0
0.01657,-0.0075572,0.035445,0.0010163,0.010938,-0.0014388,0,0,0.063717,-0.025797,0,-0.0074816,0,0,0,0.035505,0.00095631,0.010938,-2.3888,0.0158,0.030796,9.8593e-07,0.28,0.84,0
0.019126,-0.007925,0.03545,0.0005647,0.010804,-0.0010506,0,0,0.064078,-0.026623,0,-0.0054632,0,0,0,0.035481,0.00053309,0.010804,-1.7235,0.015606,0.031111,9.9742e-07,0.32,0.84,0
0.021697,-0.0081499,0.035595,0.00033589,0.010779,-0.00081971,0,0,0.06452,-0.027153,0,-0.0042625,0,0,0,0.035614,0.00031684,0.010779,-1.3311,0.01557,0.031401,1.0155e-06,0.36,0.84,0
0.024288,-0.0082403,0.035978,0.00038066,0.010908,-0.00071215,0,0,0.065184,-0.02737,0,-0.0037032,0,0,0,0.035993,0.00036642,0.010908,-1.1456,0.015756,0.031699,1.0468e-06,0.4,0.84,0
0.026911,-0.0081869,0.036808,0.00089837,0.011312,-0.00027132,0,0,0.06629,-0.027075,0,-0.0014109,0,0,0,0.03681,0.00089633,0.011312,-0.43288,0.016339,0.032003,1.102e-06,0.44,0.84,0
0.029591,-0.0077783,0.042129,-0.0015687,0.012168,-0.0010571,0,0,0.054083,-0.024416,0,-0.0040859,0,0,0,0.042156,-0.0015955,0.012168,-1.4573,0.017576,0.038751,2.022e-06,0.48,0.84,0
0.031496,-0.0076589,0.033876,-0.0015626,0.009694,0.00042362,0,0,0.043345,-0.019925,0,0.0017108,0,0,0,0.033882,-0.0015684,0.009694,0.75139,0.014002,0.031375,1.0839e-06,0.52,0.84,0
0.032887,-0.0079201,0.037778,-0.0018243,0.010786,-9.873e-05,0,0,0.03509,-0.016394,0,-0.0002567,0,0,0,0.037778,-0.0018245,0.010786,-0.14284,0.01558,0.035043,1.2842e-06,0.56,0.84,0
0.034303,-0.0082058,0.038255,-0.00030514,0.011385,-0.00060235,0,0,0.034931,-0.015197,0,-0.0015661,0,0,0,0.038265,-0.00031455,0.011385,-0.89472,0.016445,0.034262,1.283e-06,0.6,0.84,0
0.035681,-0.008493,0.038033,0.00050946,0.011563,-0.00095808,0,0,0.034411,-0.014369,0,-0.002491,0,0,0,0.038057,0.00048501,0.011563,-1.4617,0.016702,0.033439,1.234e-06,0.64,0.84,0
0.037056,-0.0088278,0.038217,0.00071071,0.011678,-0.0013379,0,0,0.034501,-0.014258,0,-0.0034784,0,0,0,0.038265,0.00066305,0.011678,-2.0403,0.016869,0.033482,1.2479e-06,0.68,0.84,0
0.038441,-0.0092035,0.038461,0.00070223,0.011749,-0.0016419,0,0,0.034725,-0.014361,0,-0.0042689,0,0,0,0.038532,0.00063097,0.011749,-2.4852,0.016971,0.033745,1.2755e-06,0.72,0.84,0
0.039834,-0.0096077,0.038546,0.00057425,0.011736,-0.0019666,0,0,0.034853,-0.01451,0,-0.0051132,0,0,0,0.038647,0.00047267,0.011736,-2.9569,0.016952,0.033973,1.293e-06,0.76,0.84,0
0.04123,-0.01003,0.038645,0.00040313,0.011714,-0.0023721,0,0,0.035009,-0.014705,0,-0.0061674,0,0,0,0.038791,0.00025656,0.011714,-3.5359,0.016921,0.034274,1.3157e-06,0.8,0.84,0
0.042635,-0.010449,0.038983,-1.8566e-05,0.011689,-0.0027077,0,0,0.035482,-0.01522,0,-0.0070401,0,0,0,0.03917,-0.00020565,0.011689,-3.9525,0.016885,0.03498,1.372e-06,0.84,0.84,0
0.044068,-0.010797,0.038795,-0.00037197,0.011527,-0.0030609,0,0,0.035448,-0.015468,0,-0.0079583,0,0,0,0.039032,-0.00060973,0.011527,-4.4417,0.01665,0.035181,1.3722e-06,0.88,0.84,0
0.045471,-0.011061,0.034728,0.00051855,0.010574,-0.0026461,0,0,0.043227,-0.017741,0,-0.0092552,0,0,0,0.034931,0.00031453,0.010574,-4.3353,0.015273,0.030798,1.1321e-06,0.92,0.84,0
0.047363,-0.011557,0.042843,0.001034,0.013163,-0.00091661,0,0,0.053513,-0.021376,0,-0.0024955,0,0,0,0.042872,0.0010046,0.013163,-1.0389,0.019013,0.037309,2.0058e-06,0.96,0.84,0
0.05,-0.012025,0.038078,0.0043292,0.012722,-0.0022462,0,0,0.065925,-0.021822,0,-0.01168,0,0,0,0.038227,0.0041803,0.012722,-3.7911,0.018377,0.030681,1.1048e-06,1,0.84,0
0,0,0.035231,0.015099,0.015099,-0.0083441,0,0,0.052344,4.3368e-19,0,-0.043389,0,0,0,0.03824,0.01209,0.015099,-19.828,0.02181,0.024783,7.4304e-07,0,0.88,0
0.0020937,-0.0017356,0.034721,0.010901,0.013687,-0.0078671,0,0,0.05469,-0.0072427,0,-0.040909,0,0,0,0.037085,0.0085373,0.013687,-16.723,0.01977,0.026353,8.203e-07,0.04,0.88,0
0.0043752,-0.0034506,0.035328,0.0070936,0.012727,-0.0068023,0,0,0.058765,-0.014646,0,-0.035372,0,0,0,0.036882,0.0055403,0.012727,-12.863,0.018383,0.028438,9.3172e-07,0.08,0.88,0
0.0067949,-0.0049844,0.035595,0.0044127,0.012002,-0.0051931,0,0,0.061342,-0.019733,0,-0.027004,0,0,0,0.036437,0.0035706,0.012002,-9.2108,0.017337,0.029567,9.7254e-07,0.12,0.88,0
0.0092825,-0.0062549,0.03546,0.0028377,0.011489,-0.003699,0,0,0.062323,-0.022494,0,-0.019235,0,0,0,0.035874,0.0024235,0.011489,-6.3888,0.016596,0.029964,9.6732e-07,0.16,0.88,0
0.011781,-0.0072577,0.035027,0.0017934,0.011046,-0.0025511,0,0,0.062351,-0.024057,0,-0.013265,0,0,0,0.035222,0.0015987,0.011046,-4.364,0.015956,0.030035,9.4155e-07,0.2,0.88,0
0.014271,-0.0080249,0.034581,0.0010855,0.0107,-0.001759,0,0,0.062092,-0.024998,0,-0.0091469,0,0,0,0.034674,0.00099336,0.0107,-2.9979,0.015456,0.030027,9.1644e-07,0.24,0.88,0
0.016748,-0.00859,0.034219,0.00060404,0.010447,-0.0012532,0,0,0.061807,-0.025591,0,-0.0065166,0,0,0,0.034265,0.00055738,0.010447,-2.1321,0.01509,0.030011,8.9711e-07,0.28,0.88,0
0.019215,-0.0089814,0.033951,0.00030178,0.010276,-0.00096558,0,0,0.061555,-0.025933,0,-0.005021,0,0,0,0.033979,0.0002741,0.010276,-1.6423,0.014843,0.029982,8.828e-07,0.32,0.88,0
0.021673,-0.0092182,0.033736,0.00016688,0.010171,-0.00084091,0,0,0.061268,-0.02601,0,-0.0043727,0,0,0,0.033757,0.00014583,0.010171,-1.4341,0.014691,0.029887,8.6915e-07,0.36,0.88,0
0.024117,-0.009308,0.033425,0.00017199,0.010079,-0.00079672,0,0,0.060699,-0.025758,0,-0.0041429,0,0,0,0.033444,0.00015291,0.010079,-1.3717,0.014559,0.029604,8.45e-07,0.4,0.88,0
0.026528,-0.0092271,0.033142,0.00039253,0.01006,-0.00066806,0,0,0.060013,-0.025137,0,-0.0034739,0,0,0,0.033156,0.00037891,0.01006,-1.1681,0.014532,0.029167,8.1718e-07,0.44,0.88,0
0.028918,-0.0089001,0.033774,-0.00045003,0.0099973,-0.00094002,0,0,0.06182,-0.027163,0,-0.0048881,0,0,0,0.0338,-0.00047582,0.0099973,-1.5721,0.014441,0.030423,8.8965e-07,0.48,0.88,0
0.031474,-0.0085055,0.038209,-0.0021881,0.010806,-0.0011613,0,0,0.049843,-0.023203,0,-0.0048556,0,0,0,0.038249,-0.002228,0.010806,-1.8074,0.015609,0.035789,1.4992e-06,0.52,0.88,0
0.033186,-0.0085783,0.031059,-0.0013607,0.0089094,-0.00078266,0,0,0.039496,-0.018071,0,-0.0036501,0,0,0,0.031092,-0.0013944,0.0089094,-1.7197,0.012869,0.028756,8.4986e-07,0.56,0.88,0
0.034501,-0.0087991,0.036526,-0.0004943,0.010809,-0.0013992,0,0,0.033431,-0.014695,0,-0.0036379,0,0,0,0.036578,-0.00054711,0.010809,-2.1614,0.015614,0.032949,1.1286e-06,0.6,0.88,0
0.035861,-0.0090602,0.037992,0.00044934,0.011532,-0.0015096,0,0,0.034398,-0.014408,0,-0.0039251,0,0,0,0.038053,0.00038874,0.011532,-2.299,0.016658,0.033512,1.237e-06,0.64,0.88,0
0.037253,-0.009395,0.038699,0.00075074,0.011835,-0.0016179,0,0,0.034923,-0.01441,0,-0.0042064,0,0,0,0.038768,0.00068189,0.011835,-2.4368,0.017095,0.033914,1.2973e-06,0.68,0.88,0
0.038655,-0.0097733,0.038725,0.00074953,0.011842,-0.001605,0,0,0.034947,-0.014421,0,-0.0041731,0,0,0,0.038793,0.00068182,0.011842,-2.4158,0.017106,0.033936,1.2998e-06,0.72,0.88,0
0.040049,-0.010178,0.038248,0.00067011,0.011676,-0.0016123,0,0,0.034545,-0.014307,0,-0.0041919,0,0,0,0.038317,0.00060107,0.011676,-2.4522,0.016865,0.033578,1.2553e-06,0.76,0.88,0
0.041418,-0.010599,0.037168,0.00043925,0.011282,-0.0017469,0,0,0.033652,-0.014096,0,-0.0045419,0,0,0,0.037251,0.00035635,0.011282,-2.7169,0.016297,0.032825,1.1613e-06,0.8,0.88,0
0.042741,-0.011031,0.035453,-0.00015773,0.010589,-0.0018134,0,0,0.032323,-0.01397,0,-0.0047148,0,0,0,0.035545,-0.00024984,0.010589,-2.9076,0.015295,0.031793,1.0271e-06,0.84,0.88,0
0.044004,-0.011398,0.029569,-0.00026503,0.0087912,-0.0016455,0,0,0.036902,-0.01583,0,-0.0046912,0,0,0,0.029686,-0.00038238,0.0087912,-2.6355,0.012698,0.026693,7.3247e-07,0.88,0.88,0
0.045587,-0.011808,0.035484,-0.0010314,0.010336,-0.0015814,0,0,0.045603,-0.020216,0,-0.004544,0,0,0,0.035575,-0.0011224,0.010336,-2.1377,0.014929,0.032522,1.1931e-06,0.92,0.88,0
0.047894,-0.012497,0.03078,0.0010947,0.0095623,-0.00050995,0,0,0.055165,-0.022016,0,-0.0026518,0,0,0,0.030788,0.0010859,0.0095623,-0.98388,0.013812,0.026501,6.3663e-07,0.96,0.88,0
0.05,-0.012819,0.030024,0.0025597,0.0097752,-0.0015495,0,0,0.052648,-0.01876,0,-0.0080575,0,0,0,0.030111,0.0024725,0.0097752,-3.2189,0.01412,0.024807,5.6108e-07,1,0.88,0
0,0,0.037383,0.016021,0.016021,-0.0099396,0,0,0.05554,-3.4694e-18,0,-0.051686,0,0,0,0.041292,0.012112,0.016021,-21.471,0.023142,0.027436,9.8842e-07,0,0.92,0
0.0022216,-0.0020674,0.036038,0.0093942,0.01363,-0.0088996,0,0,0.058261,-0.011012,0,-0.046278,0,0,0,0.038737,0.006695,0.01363,-16.872,0.019687,0.029199,1.0395e-06,0.04,0.92,0
0.0046609,-0.0041123,0.036295,0.0045477,0.012253,-0.0066891,0,0,0.06251,-0.020033,0,-0.034783,0,0,0,0.037647,0.0031959,0.012253,-11.425,0.017699,0.030933,1.0924e-06,0.08,0.92,0
0.0072224,-0.0058443,0.036128,0.0027863,0.011674,-0.0044875,0,0,0.063579,-0.023109,0,-0.023335,0,0,0,0.036721,0.0021929,0.011674,-7.5329,0.016863,0.030899,1.048e-06,0.12,0.92,0
0.0097472,-0.0071975,0.035001,0.0016794,0.011004,-0.0028734,0,0,0.062393,-0.024245,0,-0.014942,0,0,0,0.035248,0.0014334,0.011004,-4.8926,0.015895,0.030189,9.4905e-07,0.16,0.92,0
0.012214,-0.0082406,0.033963,0.001012,0.010493,-0.0018573,0,0,0.061024,-0.02465,0,-0.0096581,0,0,0,0.034068,0.00090764,0.010493,-3.2159,0.015156,0.029557,8.7127e-07,0.2,0.92,0
0.014629,-0.0090283,0.033159,0.00058195,0.010122,-0.0012344,0,0,0.059896,-0.024805,0,-0.0064187,0,0,0,0.033206,0.00053525,0.010122,-2.1668,0.014621,0.029087,8.1659e-07,0.24,0.92,0
0.017005,-0.0096045,0.03257,0.0003034,0.009862,-0.00087627,0,0,0.059041,-0.024852,0,-0.0045566,0,0,0,0.032594,0.00027962,0.009862,-1.5545,0.014245,0.028747,7.7876e-07,0.28,0.92,0
0.019352,-0.0099996,0.032121,0.00014312,0.0096793,-0.00068895,0,0,0.058349,-0.024794,0,-0.0035825,0,0,0,0.032136,0.00012829,0.0096793,-1.2336,0.013981,0.028461,7.5016e-07,0.32,0.92,0
0.021673,-0.010231,0.031722,9.7298e-05,0.0095458,-0.00059343,0,0,0.057658,-0.024566,0,-0.0030858,0,0,0,0.031733,8.6166e-05,0.0095458,-1.0746,0.013788,0.028136,7.233e-07,0.36,0.92,0
0.023965,-0.010301,0.031344,0.00018673,0.0094592,-0.0005008,0,0,0.0569,-0.024109,0,-0.0026041,0,0,0,0.031352,0.00017868,0.0094592,-0.92061,0.013663,0.027724,6.9529e-07,0.4,0.92,0
0.026225,-0.010198,0.031107,0.0002583,0.0094096,-0.00041806,0,0,0.056413,-0.023793,0,-0.0021739,0,0,0,0.031113,0.00025263,0.0094096,-0.77628,0.013592,0.027452,6.7769e-07,0.44,0.92,0
0.028478,-0.0099514,0.030379,-0.0006012,0.0089333,-0.00048776,0,0,0.055758,-0.02479,0,-0.0025364,0,0,0,0.030387,-0.00060887,0.0089333,-0.90179,0.012904,0.027495,6.5033e-07,0.48,0.92,0
0.030686,-0.0095966,0.030615,-0.0010438,0.0088713,-0.0015627,0,0,0.056533,-0.025779,0,-0.008126,0,0,0,0.030692,-0.0011208,0.0088713,-2.819,0.012814,0.028178,6.8105e-07,0.52,0.92,0
0.033001,-0.0093335,0.033787,-0.0017299,0.0096172,-0.0022158,0,0,0.044176,-0.020062,0,-0.0086024,0,0,0,0.033931,-0.0018734,0.0096172,-3.7172,0.013891,0.031671,1.0229e-06,0.56,0.92,0
0.034494,-0.0093814,0.030596,0.00017787,0.0092321,-0.0021122,0,0,0.037031,-0.016262,0,-0.0089408,0,0,0,0.030791,-1.7033e-05,0.0092321,-4.6525,0.013335,0.02739,8.743e-07,0.6,0.92,0
0.035963,-0.0096457,0.030546,0.00063448,0.0093542,-0.0019739,0,0,0.036733,-0.015352,0,-0.0077978,0,0,0,0.030694,0.00048655,0.0093542,-4.2255,0.013512,0.026895,8.55e-07,0.64,0.92,0
0.037433,-0.0099806,0.03047,0.00072102,0.0093573,-0.0015933,0,0,0.036595,-0.015134,0,-0.0060823,0,0,0,0.030561,0.00062954,0.0093573,-3.3414,0.013516,0.026663,8.4239e-07,0.68,0.92,0
0.038891,-0.010357,0.030072,0.00065368,0.0092178,-0.0012337,0,0,0.036148,-0.014969,0,-0.0045429,0,0,0,0.030125,0.00060058,0.0092178,-2.5357,0.013315,0.026298,8.091e-07,0.72,0.92,0
0.040324,-0.010752,0.029396,0.00061117,0.0090022,-0.00088942,0,0,0.035349,-0.014642,0,-0.0030672,0,0,0,0.029423,0.0005837,0.0090022,-1.7557,0.013003,0.025687,7.5482e-07,0.76,0.92,0
0.041719,-0.011158,0.028351,0.00047871,0.0086488,-0.00054544,0,0,0.03415,-0.014262,0,-0.0015034,0,0,0,0.028365,0.00046441,0.0086488,-0.89316,0.012493,0.024841,6.7938e-07,0.8,0.92,0
0.043056,-0.011566,0.02712,6.448e-05,0.0081555,-0.00033138,0,0,0.032873,-0.014343,0,-0.0001061,0,0,0,0.027151,3.366e-05,0.0081555,-0.1024,0.01178,0.024108,6.065e-07,0.84,0.92,0
0.044349,-0.012047,0.029128,-0.0014017,0.0083178,-0.00046738,0,0,0.037954,-0.017157,0,-0.00072741,0,0,0,0.029153,-0.0014276,0.0083178,-0.55073,0.012015,0.027065,6.5102e-07,0.88,0.92,0
0.046319,-0.01274,0.025934,-0.00059647,0.0076012,-0.00014629,0,0,0.047665,-0.021314,0,-0.00076073,0,0,0,0.025935,-0.00059728,0.0076012,-0.31593,0.010979,0.023529,4.0554e-07,0.92,0.92,0
0.048162,-0.013319,0.025494,0.00049217,0.0077958,-0.00064344,0,0,0.046015,-0.018989,0,-0.0033459,0,0,0,0.02551,0.00047563,0.0077958,-1.4733,0.011261,0.022295,3.692e-07,0.96,0.92,0
0.05,-0.013525,0.025924,0.0015728,0.0082492,-0.00099408,0,0,0.045956,-0.017358,0,-0.0051692,0,0,0,0.025965,0.0015323,0.0082492,-2.3338,0.011915,0.021862,3.7083e-07,1,0.92,0
0,0,0.042132,0.018057,0.018057,-0.01258,0,0,0.062596,6.9389e-18,0,-0.065413,0,0,0,0.047506,0.012683,0.018057,-23.13,0.026082,0.032471,1.5973e-06,0,0.96,0
0.0025039,-0.0026165,0.038556,0.0039158,0.012741,-0.007831,0,0,0.067117,-0.022947,0,-0.040721,0,0,0,0.040244,0.0022277,0.012741,-12.165,0.018404,0.034001,1.3872e-06,0.04,0.96,0
0.0053694,-0.0050533,0.039117,0.0029823,0.01263,-0.0047938,0,0,0.068868,-0.025084,0,-0.024928,0,0,0,0.039743,0.0023572,0.01263,-7.4299,0.018243,0.033454,1.3293e-06,0.08,0.96,0
0.0080133,-0.0068331,0.035787,0.0015474,0.011201,-0.0025868,0,0,0.063926,-0.025098,0,-0.013451,0,0,0,0.035982,0.0013531,0.011201,-4.2961,0.016178,0.030905,1.0133e-06,0.12,0.96,0
0.010483,-0.0081945,0.03351,0.00085735,0.01031,-0.0015151,0,0,0.06032,-0.024578,0,-0.0078787,0,0,0,0.033581,0.0007872,0.01031,-2.651,0.014893,0.02922,8.3753e-07,0.16,0.96,0
0.012839,-0.0092297,0.032056,0.00047822,0.0097603,-0.00091572,0,0,0.057969,-0.024133,0,-0.0047617,0,0,0,0.032083,0.00045169,0.0097603,-1.6596,0.014098,0.028155,7.3818e-07,0.2,0.96,0
0.015121,-0.010009,0.031127,0.00025759,0.0094153,-0.00058893,0,0,0.05645,-0.02381,0,-0.0030624,0,0,0,0.031138,0.00024636,0.0094153,-1.0926,0.0136,0.027479,6.7949e-07,0.24,0.96,0
0.017355,-0.010578,0.030505,0.00012569,0.0091892,-0.0004174,0,0,0.055421,-0.023565,0,-0.0021705,0,0,0,0.030511,0.00011995,0.0091892,-0.78702,0.013273,0.027023,6.4203e-07,0.28,0.96,0
0.019555,-0.010965,0.030055,6.1382e-05,0.009035,-0.00033136,0,0,0.054653,-0.023332,0,-0.0017231,0,0,0,0.030059,5.7722e-05,0.009035,-0.63287,0.013051,0.026671,6.1528e-07,0.32,0.96,0
0.021727,-0.011184,0.029704,6.7163e-05,0.0089314,-0.00027101,0,0,0.054009,-0.023047,0,-0.0014093,0,0,0,0.029707,6.4685e-05,0.0089314,-0.52388,0.012901,0.026352,5.9373e-07,0.36,0.96,0
0.023875,-0.011237,0.029432,0.00011927,0.0088653,-0.00019585,0,0,0.053472,-0.02274,0,-0.0010184,0,0,0,0.029433,0.00011796,0.0088653,-0.38279,0.012805,0.026066,5.7633e-07,0.4,0.96,0
0.026005,-0.011131,0.029126,4.3279e-05,0.0087508,-0.00011781,0,0,0.052976,-0.02264,0,-0.0006126,0,0,0,0.029127,4.2801e-05,0.0087508,-0.23209,0.01264,0.025854,5.6006e-07,0.44,0.96,0
0.028113,-0.010883,0.028793,-0.00014438,0.0085945,-0.00021428,0,0,0.052515,-0.022721,0,-0.0011142,0,0,0,0.028794,-0.00014597,0.0085945,-0.42424,0.012414,0.02571,5.449e-07,0.48,0.96,0
0.030206,-0.010568,0.02753,-0.00081077,0.0080158,-0.00047979,0,0,0.050737,-0.022949,0,-0.0024949,0,0,0,0.027538,-0.00081889,0.0080158,-0.96961,0.011578,0.025133,4.8874e-07,0.52,0.96,0
0.032172,-0.010231,0.026364,-0.00085852,0.0076515,-0.0015489,0,0,0.048652,-0.022126,0,-0.0080542,0,0,0,0.026451,-0.00094636,0.0076515,-3.2461,0.011052,0.024269,4.3567e-07,0.56,0.96,0
0.034098,-0.0101,0.02518,3.75e-05,0.0075652,-0.0015149,0,0,0.045798,-0.019572,0,-0.0078776,0,0,0,0.025271,-5.3452e-05,0.0075652,-3.4357,0.010927,0.022504,3.6719e-07,0.6,0.96,0
0.035836,-0.010288,0.023405,0.00044955,0.0071564,-0.001428,0,0,0.042247,-0.017438,0,-0.0074259,0,0,0,0.023494,0.00036105,0.0071564,-3.5461,0.010337,0.020594,2.8945e-07,0.64,0.96,0
0.037478,-0.010606,0.022349,0.00043856,0.0068364,-0.0010742,0,0,0.040334,-0.016634,0,-0.0055857,0,0,0,0.022402,0.00038603,0.0068364,-2.8,0.0098748,0.019603,2.5042e-07,0.68,0.96,0
0.039063,-0.010971,0.021647,0.00041472,0.0066185,-0.00069967,0,0,0.039074,-0.01613,0,-0.0036383,0,0,0,0.02167,0.00039169,0.0066185,-1.8854,0.0095601,0.018949,2.2645e-07,0.72,0.96,0
0.040604,-0.01135,0.021121,0.00041755,0.0064616,-0.00033268,0,0,0.038115,-0.015714,0,-0.0017299,0,0,0,0.021126,0.00041221,0.0064616,-0.92034,0.0093334,0.018449,2.0949e-07,0.76,0.96,0
0.042112,-0.01174,0.02092,0.00044588,0.0064099,2.0034e-05,0,0,0.037727,-0.015506,0,0.00010418,0,0,0,0.02092,0.00044586,0.0064099,0.056063,0.0092587,0.018239,2.03e-07,0.8,0.96,0
0.043622,-0.012178,0.021463,0.00016749,0.0064892,0.00015791,0,0,0.038933,-0.016436,0,0.00082112,0,0,0,0.021465,0.00016632,0.0064892,0.42482,0.0093733,0.018945,2.2262e-07,0.84,0.96,0
0.045227,-0.012808,0.021478,-0.00077289,0.0062116,0.00025724,0,0,0.039693,-0.01816,0,0.0013377,0,0,0,0.021481,-0.00077586,0.0062116,0.66228,0.0089723,0.019715,2.3341e-07,0.88,0.96,0
0.046797,-0.013513,0.021699,-0.00041172,0.0063861,-0.00053295,0,0,0.039813,-0.017674,0,-0.0027714,0,0,0,0.021712,-0.00042456,0.0063861,-1.38,0.0092243,0.019637,2.3711e-07,0.92,0.96,0
0.048412,-0.014016,0.022179,0.00042951,0.0067825,-0.00041591,0,0,0.040031,-0.016518,0,-0.0021627,0,0,0,0.022187,0.00042156,0.0067825,-1.0951,0.009797,0.019384,2.4279e-07,0.96,0.96,0
0.05,-0.014208,0.022087,0.00063311,0.0068161,-0.0009222,0,0,0.039705,-0.016076,0,-0.0047954,0,0,0,0.022127,0.00059355,0.0068161,-2.4568,0.0098455,0.019194,2.3866e-07,1,0.96,0
0,0,0.067598,0.02897,0.02897,-0.018765,0,0,0.10043,-1.3878e-17,0,-0.09758,0,0,0,0.075213,0.021355,0.02897,-22.087,0.041846,0.050482,6.1039e-06,0,1,0
0.0040172,-0.0039032,0.048633,0.0031689,0.015541,-0.0074334,0,0,0.08604,-0.032166,0,-0.038654,0,0,0,0.049817,0.0019844,0.015541,-9.0539,0.022447,0.0427,2.6822e-06,0.04,1,0
0.0068832,-0.0061191,0.036655,0.00107,0.011317,-0.0022147,0,0,0.065878,-0.026644,0,-0.011516,0,0,0,0.036792,0.00093271,0.011317,-3.5476,0.016348,0.031959,1.0991e-06,0.08,1,0
0.0092874,-0.0078521,0.031608,-0.00045167,0.0093469,-0.0011931,0,0,0.057879,-0.025476,0,-0.0062042,0,0,0,0.031653,-0.00049601,0.0093469,-2.1283,0.013501,0.02853,7.3181e-07,0.12,1,0
0.011513,-0.0091637,0.029695,-0.00058756,0.0087323,-0.00062266,0,0,0.054504,-0.024232,0,-0.0032378,0,0,0,0.029708,-0.00060036,0.0087323,-1.1774,0.012613,0.026886,6.0785e-07,0.16,1,0
0.013648,-0.010171,0.028707,-0.00063095,0.008423,-0.00036463,0,0,0.05274,-0.02354,0,-0.0018961,0,0,0,0.028712,-0.00063548,0.008423,-0.71195,0.012167,0.026029,5.4979e-07,0.2,1,0
0.015733,-0.010933,0.028168,-0.00061725,0.0082651,-0.00022856,0,0,0.051747,-0.023094,0,-0.0011885,0,0,0,0.02817,-0.00061906,0.0082651,-0.45491,0.011938,0.025533,5.1913e-07,0.24,1,0
0.017788,-0.01149,0.027813,-0.00060103,0.0081636,-0.00016308,0,0,0.051089,-0.022788,0,-0.00084799,0,0,0,0.027814,-0.00060196,0.0081636,-0.32882,0.011792,0.025204,4.9955e-07,0.28,1,0
0.01982,-0.011866,0.027534,-0.00057884,0.0080865,-0.00013101,0,0,0.050563,-0.02253,0,-0.00068123,0,0,0,0.027534,-0.00057945,0.0080865,-0.26699,0.01168,0.024937,4.8436e-07,0.32,1,0
0.021833,-0.012075,0.02732,-0.00053049,0.0080368,-0.00010397,0,0,0.050136,-0.022275,0,-0.00054066,0,0,0,0.02732,-0.00053087,0.0080368,-0.2139,0.011609,0.024708,4.7238e-07,0.36,1,0
0.023831,-0.01212,0.027203,-0.00047691,0.0080178,-5.7773e-05,0,0,0.049882,-0.022086,0,-0.00030042,0,0,0,0.027203,-0.00047703,0.0080178,-0.11959,0.011581,0.02456,4.6543e-07,0.4,1,0
0.025823,-0.012009,0.027282,-0.00037466,0.0080721,-3.0301e-05,0,0,0.049945,-0.021962,0,-0.00015756,0,0,0,0.027282,-0.00037469,0.0080721,-0.062774,0.01166,0.024548,4.6766e-07,0.44,1,0
0.027826,-0.011769,0.027357,-0.00044247,0.0080743,4.9833e-06,0,0,0.050135,-0.022144,0,2.5913e-05,0,0,0,0.027357,-0.00044247,0.0080743,0.010271,0.011663,0.024669,4.7271e-07,0.48,1,0
0.029834,-0.011432,0.027943,9.79e-05,0.0084122,-0.00019033,0,0,0.050779,-0.021617,0,-0.00098973,0,0,0,0.027944,9.6599e-05,0.0084122,-0.39162,0.012151,0.02476,4.935e-07,0.52,1,0
0.031889,-0.011104,0.028097,4.9788e-05,0.008444,-0.00019782,0,0,0.051097,-0.021825,0,-0.0010287,0,0,0,0.028098,4.8393e-05,0.008444,-0.40409,0.012197,0.024935,5.0266e-07,0.56,1,0
0.033922,-0.010947,0.027429,0.00011934,0.0082644,-0.00069824,0,0,0.049827,-0.021177,0,-0.0036308,0,0,0,0.027447,0.0001015,0.0082644,-1.4636,0.011938,0.024314,4.675e-07,0.6,1,0
0.035875,-0.011041,0.026097,0.00085011,0.008084,-0.00069043,0,0,0.046833,-0.018808,0,-0.0035902,0,0,0,0.026115,0.00083124,0.008084,-1.5653,0.011677,0.02255,3.9011e-07,0.64,1,0
0.037668,-0.011311,0.024097,0.00063436,0.0074194,-0.00054413,0,0,0.043362,-0.017641,0,-0.0028295,0,0,0,0.024109,0.00062175,0.0074194,-1.3278,0.010717,0.020934,3.0912e-07,0.68,1,0
0.039344,-0.011647,0.022776,0.0004655,0.0069723,-0.0003285,0,0,0.041088,-0.016918,0,-0.0017082,0,0,0,0.02278,0.00046067,0.0069723,-0.8434,0.010071,0.01988,2.6243e-07,0.72,1,0
0.040955,-0.012009,0.022267,0.00048018,0.0068241,-0.00011474,0,0,0.040151,-0.016494,0,-0.00059667,0,0,0,0.022267,0.00047957,0.0068241,-0.30175,0.009857,0.019409,2.4473e-07,0.76,1,0
0.042556,-0.012398,0.022468,0.00059046,0.0069174,3.6872e-05,0,0,0.04043,-0.01645,0,0.00019173,0,0,0,0.022468,0.0005904,0.0069174,0.096567,0.0099918,0.019499,2.5002e-07,0.8,1,0
0.04419,-0.012881,0.022147,-0.00016431,0.0065949,8.0486e-05,0,0,0.040436,-0.017574,0,0.00041853,0,0,0,0.022148,-0.0001646,0.0065949,0.20669,0.0095259,0.019817,2.4857e-07,0.84,1,0
0.045791,-0.0135,0.021224,-0.00041235,0.0062434,-0.00034823,0,0,0.038949,-0.017305,0,-0.0018108,0,0,0,0.021229,-0.00041795,0.0062434,-0.92185,0.0090183,0.019204,2.2169e-07,0.88,1,0
0.047306,-0.014154,0.019717,-0.00034809,0.0058108,-0.00029837,0,0,0.036157,-0.016013,0,-0.0015515,0,0,0,0.019722,-0.00035253,0.0058108,-0.85174,0.0083934,0.017811,1.7742e-07,0.92,1,0
0.048683,-0.01464,0.018169,-0.00078408,0.0052156,-0.00027552,0,0,0.03368,-0.015599,0,-0.0014327,0,0,0,0.018173,-0.00078809,0.0052156,-0.83266,0.0075336,0.016785,1.423e-07,0.96,1,0
0.05,-0.014812,0.017804,-0.00066,0.0051433,-0.00082404,0,0,0.032919,-0.015089,0,-0.004285,0,0,0,0.017841,-0.00069671,0.0051433,-2.5503,0.0074292,0.016416,1.341e-07,1,1,0
