"Displacements:0","Displacements:1","Stress/Strain:0","Stress/Strain:1","Stress/Strain:2","Stress/Strain:3","Stress/Strain:4","Stress/Strain:5","Stress/Strain:6","Stress/Strain:7","Stress/Strain:8","Stress/Strain:9","Stress/Strain:10","Stress/Strain:11","Stress/Strain:12","Principal Stress:0","Principal Stress:1","Principal Stress:2","Principal Stress:3","Principal Stress:4","Principal Stress:5","Principal Stress:6","nodes:0","nodes:1","nodes:2"
0,0,0.053815,0.023063,0.023063,0.014741,0,0,0.079953,3.4694e-18,0,0.076651,0,0,0,0.059739,0.017139,0.023063,21.896,0.033314,0.039968,3.0378e-06,0,0,0
0.0031981,0.003066,0.038873,0.0024485,0.012396,0.0058023,0,0,0.068839,-0.025865,0,0.030172,0,0,0,0.039775,0.0015466,0.012396,8.8358,0.017906,0.034123,1.3667e-06,0.04,0,0
0.0055071,0.0047679,0.029728,0.00083488,0.0091688,0.001638,0,0,0.053454,-0.021668,0,0.0085178,0,0,0,0.02982,0.00074231,0.0091688,3.2345,0.013244,0.025914,5.8553e-07,0.08,0,0
0.0074744,0.0060804,0.026089,-0.00032763,0.0077285,0.0008133,0,0,0.047738,-0.020946,0,0.0042292,0,0,0,0.026114,-0.00035265,0.0077285,1.7618,0.011163,0.023493,4.1005e-07,0.12,0,0
0.0093262,0.0070596,0.02497,-0.00039767,0.0073717,0.00033855,0,0,0.045755,-0.0202,0,0.0017604,0,0,0,0.024975,-0.00040219,0.0073717,0.76447,0.010648,0.02252,3.5963e-07,0.16,0,0
0.011135,0.007805,0.02465,-0.00039456,0.0072767,0.00010581,0,0,0.045171,-0.019945,0,0.00055022,0,0,0,0.024651,-0.00039501,0.0072767,0.24207,0.010511,0.022226,3.4579e-07,0.2,0,0
0.01294,0.0083712,0.024769,-0.00034207,0.0073281,-3.2048e-05,0,0,0.045347,-0.019942,0,-0.00016665,0,0,0,0.024769,-0.00034211,0.0073281,-0.073122,0.010585,0.022289,3.5001e-07,0.24,0,0
0.014763,0.0088018,0.025119,-0.00028409,0.0074504,-0.00011022,0,0,0.045938,-0.02011,0,-0.00057315,0,0,0,0.025119,-0.00028457,0.0074504,-0.24859,0.010762,0.022554,3.6413e-07,0.28,0,0
0.016615,0.009132,0.025584,-0.00022697,0.0076072,-0.0001492,0,0,0.046741,-0.020369,0,-0.00077583,0,0,0,0.025585,-0.00022783,0.0076072,-0.33117,0.010988,0.022923,3.8381e-07,0.32,0,0
0.018502,0.0093913,0.026086,-0.00017479,0.0077733,-0.00016007,0,0,0.047612,-0.020665,0,-0.00083237,0,0,0,0.026087,-0.00017577,0.0077733,-0.34923,0.011228,0.023327,4.0589e-07,0.36,0,0
0.020424,0.009604,0.026565,-0.00012933,0.0079308,-0.00015089,0,0,0.04845,-0.020956,0,-0.00078462,0,0,0,0.026566,-0.00013019,0.0079308,-0.32385,0.011456,0.023717,4.2785e-07,0.4,0,0
0.022378,0.0097897,0.026983,-9.1729e-05,0.0080673,-0.00012805,0,0,0.04918,-0.021213,0,-0.00066584,0,0,0,0.026983,-9.2335e-05,0.0080673,-0.27097,0.011653,0.024057,4.4763e-07,0.44,0,0
0.024358,0.0099632,0.027313,-6.2602e-05,0.008175,-9.6867e-05,0,0,0.049758,-0.021418,0,-0.00050371,0,0,0,0.027313,-6.2945e-05,0.008175,-0.20274,0.011808,0.024327,4.6369e-07,0.48,0,0
0.026358,0.010135,0.027542,-4.2095e-05,0.0082498,-6.1742e-05,0,0,0.050159,-0.021559,0,-0.00032106,0,0,0,0.027542,-4.2233e-05,0.0082498,-0.12825,0.011916,0.024513,4.7504e-07,0.52,0,0
0.028371,0.010312,0.027666,-2.9845e-05,0.008291,-2.6222e-05,0,0,0.050376,-0.021634,0,-0.00013635,0,0,0,0.027667,-2.987e-05,0.008291,-0.054246,0.011976,0.024614,4.813e-07,0.56,0,0
0.030388,0.010496,0.027692,-2.5027e-05,0.0083002,6.8681e-06,0,0,0.050419,-0.021646,0,3.5714e-05,0,0,0,0.027692,-2.5029e-05,0.0083002,0.014198,0.011989,0.024633,4.8255e-07,0.6,0,0
0.032405,0.010687,0.02763,-2.6468e-05,0.0082812,3.5324e-05,0,0,0.050308,-0.0216,0,0.00018368,0,0,0,0.02763,-2.6513e-05,0.0082812,0.073178,0.011962,0.02458,4.7936e-07,0.64,0,0
0.034413,0.010882,0.027498,-3.2804e-05,0.0082394,5.7506e-05,0,0,0.050071,-0.021508,0,0.00029903,0,0,0,0.027498,-3.2924e-05,0.0082394,0.11968,0.011901,0.024467,4.726e-07,0.68,0,0
0.03641,0.011077,0.027313,-4.263e-05,0.0081811,7.2361e-05,0,0,0.049743,-0.021382,0,0.00037628,0,0,0,0.027313,-4.2821e-05,0.0081811,0.15156,0.011817,0.024311,4.6333e-07,0.72,0,0
0.038393,0.011265,0.027099,-5.4581e-05,0.0081132,7.9456e-05,0,0,0.049362,-0.021236,0,0.00041317,0,0,0,0.027099,-5.4814e-05,0.0081132,0.16766,0.011719,0.02413,4.5272e-07,0.76,0,0
0.040359,0.011438,0.026875,-6.7373e-05,0.0080424,7.8988e-05,0,0,0.048966,-0.021085,0,0.00041074,0,0,0,0.026876,-6.7605e-05,0.0080424,0.16797,0.011617,0.023942,4.4186e-07,0.8,0,0
0.04231,0.011592,0.026664,-7.9808e-05,0.0079752,7.1707e-05,0,0,0.04859,-0.020943,0,0.00037287,0,0,0,0.026664,-8e-05,0.0079752,0.15362,0.01152,0.023763,4.3173e-07,0.84,0,0
0.044246,0.011718,0.026481,-9.0794e-05,0.007917,5.8763e-05,0,0,0.048266,-0.02082,0,0.00030557,0,0,0,0.026481,-9.0924e-05,0.007917,0.12671,0.011436,0.023609,4.2309e-07,0.88,0,0
0.046171,0.011812,0.02634,-9.939e-05,0.0078723,4.1535e-05,0,0,0.048017,-0.020726,0,0.00021598,0,0,0,0.02634,-9.9455e-05,0.0078723,0.090006,0.011371,0.023491,4.1655e-07,0.92,0,0
0.048088,0.01187,0.026252,-0.00010486,0.0078442,2.1469e-05,0,0,0.047861,-0.020668,0,0.00011164,0,0,0,0.026252,-0.00010488,0.0078442,0.04667,0.011331,0.023417,4.1248e-07,0.96,0,0
0.05,0.01189,0.026222,-0.00010674,0.0078347,9.455e-05,0,0,0.047808,-0.020648,0,0.00049166,0,0,0,0.026223,-0.00010708,0.0078347,0.20575,0.011317,0.023393,4.1112e-07,1,0,0
0,0,0.034008,0.014575,0.014575,0.0097665,0,0,0.050526,3.0358e-18,0,0.050786,0,0,0,0.038068,0.010515,0.014575,22.573,0.021053,0.025764,8.0534e-07,0,0.04,0
0.002021,0.0020314,0.031163,0.0031515,0.010294,0.0060133,0,0,0.054258,-0.018571,0,0.031269,0,0,0,0.032399,0.0019152,0.010294,11.618,0.01487,0.027277,7.2039e-07,0.04,0.04,0
0.0043407,0.0039012,0.031778,0.0024064,0.010255,0.0035617,0,0,0.055958,-0.020407,0,0.018521,0,0,0,0.032203,0.0019806,0.010255,6.8164,0.014813,0.027052,7.0524e-07,0.08,0.04,0
0.0064977,0.0052426,0.029351,0.0012805,0.0091895,0.0017699,0,0,0.05242,-0.020563,0,0.0092037,0,0,0,0.029462,0.0011694,0.0091895,3.5937,0.013274,0.025257,5.5491e-07,0.12,0.04,0
0.0085343,0.0062516,0.027815,0.0007462,0.0085684,0.00086831,0,0,0.050042,-0.020338,0,0.0045152,0,0,0,0.027843,0.00071837,0.0085684,1.8354,0.012377,0.024175,4.761e-07,0.16,0.04,0
0.010501,0.0070072,0.026983,0.00045208,0.0082305,0.00033271,0,0,0.048756,-0.020224,0,0.0017301,0,0,0,0.026987,0.00044791,0.0082305,0.71837,0.011888,0.02363,4.3811e-07,0.2,0.04,0
0.012435,0.0075735,0.026616,0.00027497,0.0080674,1.1513e-05,0,0,0.048227,-0.02026,0,5.9865e-05,0,0,0,0.026616,0.00027497,0.0080674,0.025041,0.011653,0.023438,4.2326e-07,0.24,0.04,0
0.014359,0.0079974,0.026539,0.00015597,0.0080084,-0.00017885,0,0,0.048179,-0.020416,0,-0.00093004,0,0,0,0.02654,0.00015476,0.0080084,-0.3884,0.011568,0.023466,4.217e-07,0.28,0.04,0
0.016289,0.0083172,0.026633,7.0857e-05,0.0080111,-0.00027922,0,0,0.048416,-0.020645,0,-0.0014519,0,0,0,0.026636,6.7922e-05,0.0080111,-0.6022,0.011572,0.02362,4.2781e-07,0.32,0.04,0
0.018232,0.0085647,0.026818,9.0178e-06,0.0080482,-0.00031509,0,0,0.048802,-0.020902,0,-0.0016385,0,0,0,0.026822,5.3151e-06,0.0080482,-0.67327,0.011625,0.023836,4.3796e-07,0.36,0.04,0
0.020193,0.0087657,0.027039,-3.4638e-05,0.0081012,-0.0003047,0,0,0.049237,-0.021153,0,-0.0015845,0,0,0,0.027042,-3.8067e-05,0.0081012,-0.64474,0.011702,0.024066,4.496e-07,0.4,0.04,0
0.022172,0.0089411,0.027254,-6.3284e-05,0.0081571,-0.0002626,0,0,0.049651,-0.021373,0,-0.0013655,0,0,0,0.027256,-6.5808e-05,0.0081571,-0.55073,0.011782,0.024279,4.6086e-07,0.44,0.04,0
0.024165,0.0091065,0.027437,-7.9525e-05,0.0082072,-0.00020077,0,0,0.049997,-0.021545,0,-0.001044,0,0,0,0.027438,-8.099e-05,0.0082072,-0.41803,0.011855,0.024452,4.7042e-07,0.48,0.04,0
0.026171,0.0092728,0.027571,-8.5713e-05,0.0082457,-0.00012904,0,0,0.050247,-0.021662,0,-0.00067099,0,0,0,0.027572,-8.6315e-05,0.0082457,-0.26731,0.01191,0.024575,4.7742e-07,0.52,0.04,0
0.028185,0.0094465,0.02765,-8.3881e-05,0.0082697,-5.5301e-05,0,0,0.050387,-0.021719,0,-0.00028756,0,0,0,0.02765,-8.3991e-05,0.0082697,-0.11425,0.011945,0.024643,4.8142e-07,0.56,0.04,0
0.030202,0.0096302,0.02767,-7.5694e-05,0.0082783,1.4138e-05,0,0,0.050419,-0.021721,0,7.3518e-05,0,0,0,0.02767,-7.5701e-05,0.0082783,0.029196,0.011958,0.024654,4.8234e-07,0.6,0.04,0
0.032219,0.0098232,0.027638,-6.2562e-05,0.0082725,7.4334e-05,0,0,0.050349,-0.021671,0,0.00038654,0,0,0,0.027638,-6.2761e-05,0.0082725,0.15375,0.011949,0.024615,4.8041e-07,0.64,0.04,0
0.03423,0.010022,0.02756,-4.5868e-05,0.0082543,0.00012157,0,0,0.050195,-0.02158,0,0.00063218,0,0,0,0.027561,-4.6403e-05,0.0082543,0.25232,0.011923,0.024533,4.761e-07,0.68,0.04,0
0.036234,0.010222,0.027449,-2.7133e-05,0.0082265,0.00015342,0,0,0.049978,-0.02146,0,0.00079776,0,0,0,0.02745,-2.799e-05,0.0082265,0.3199,0.011883,0.02442,4.7005e-07,0.72,0.04,0
0.038228,0.010415,0.027317,-7.998e-06,0.0081928,0.0001688,0,0,0.049724,-0.021322,0,0.00087773,0,0,0,0.027318,-9.0407e-06,0.0081928,0.35391,0.011834,0.024288,4.6298e-07,0.76,0.04,0
0.040212,0.010595,0.027178,9.9673e-06,0.0081565,0.00016804,0,0,0.049457,-0.021181,0,0.00087379,0,0,0,0.027179,8.928e-06,0.0081565,0.35436,0.011782,0.02415,4.5563e-07,0.8,0.04,0
0.042185,0.010754,0.027045,2.5502e-05,0.0081212,0.00015269,0,0,0.049202,-0.021049,0,0.00079401,0,0,0,0.027046,2.4639e-05,0.0081212,0.32378,0.011731,0.024019,4.4868e-07,0.84,0.04,0
0.044148,0.010885,0.026929,3.7811e-05,0.0080901,0.00012521,0,0,0.048982,-0.020936,0,0.00065111,0,0,0,0.02693,3.7228e-05,0.0080901,0.26677,0.011686,0.023906,4.427e-07,0.88,0.04,0
0.046104,0.010983,0.02684,4.6561e-05,0.0080659,8.8539e-05,0,0,0.048812,-0.02085,0,0.0004604,0,0,0,0.02684,4.6268e-05,0.0080659,0.18933,0.011651,0.023819,4.3812e-07,0.92,0.04,0
0.048053,0.011044,0.026783,5.1736e-05,0.0080505,4.5776e-05,0,0,0.048705,-0.020797,0,0.00023803,0,0,0,0.026783,5.1658e-05,0.0080505,0.098113,0.011629,0.023764,4.3526e-07,0.96,0.04,0
0.05,0.011064,0.026764,5.3443e-05,0.0080453,9.8395e-05,0,0,0.048669,-0.020779,0,0.00051165,0,0,0,0.026765,5.308e-05,0.0080453,0.21106,0.011621,0.023746,4.3431e-07,1,0.04,0
0,0,0.030263,0.01297,0.01297,0.0075977,0,0,0.044962,1.301e-18,0,0.039508,0,0,0,0.033127,0.010106,0.01297,20.653,0.018734,0.021731,4.9632e-07,0,0.08,0
0.0017985,0.0015803,0.029176,0.0075365,0.011014,0.0067415,0,0,0.047221,-0.0090406,0,0.035056,0,0,0,0.031104,0.005608,0.011014,15.963,0.015909,0.023269,5.3123e-07,0.04,0.08,0
0.0037777,0.0031353,0.029482,0.0036994,0.0099546,0.0049184,0,0,0.050773,-0.016263,0,0.025576,0,0,0,0.030389,0.0027931,0.0099546,10.441,0.014379,0.024803,5.6901e-07,0.08,0.08,0
0.0058603,0.0044353,0.029468,0.0023301,0.0095393,0.0030861,0,0,0.051813,-0.018744,0,0.016047,0,0,0,0.029814,0.0019836,0.0095393,6.4067,0.013779,0.024927,5.56e-07,0.12,0.08,0
0.0079228,0.0054326,0.028729,0.0014736,0.0090609,0.0017087,0,0,0.051138,-0.019727,0,0.0088855,0,0,0,0.028836,0.0013669,0.0090609,3.5734,0.013088,0.024544,5.154e-07,0.16,0.08,0
0.0099513,0.0061871,0.028098,0.00095277,0.0087153,0.00079918,0,0,0.050396,-0.020183,0,0.0041558,0,0,0,0.028122,0.00092926,0.0087153,1.6849,0.012589,0.024256,4.864e-07,0.2,0.08,0
0.011954,0.0067503,0.027684,0.00060432,0.0084865,0.00020354,0,0,0.049913,-0.020494,0,0.0010584,0,0,0,0.027685,0.00060279,0.0084865,0.43062,0.012258,0.024127,4.7024e-07,0.24,0.08,0
0.013944,0.0071685,0.027467,0.00035639,0.0083471,-0.00016901,0,0,0.049712,-0.020776,0,-0.00087887,0,0,0,0.027468,0.00035534,0.0083471,-0.35717,0.012057,0.024131,4.6387e-07,0.28,0.08,0
0.015931,0.0074804,0.027395,0.00017333,0.0082704,-0.00037994,0,0,0.049723,-0.021052,0,-0.0019757,0,0,0,0.0274,0.00016803,0.0082704,-0.7995,0.011946,0.02422,4.6389e-07,0.32,0.08,0
0.017922,0.0077191,0.027415,3.8212e-05,0.0082359,-0.00047148,0,0,0.049865,-0.021314,0,-0.0024517,0,0,0,0.027423,3.0095e-05,0.0082359,-0.98635,0.011896,0.02435,4.6761e-07,0.36,0.08,0
0.019921,0.0079117,0.027485,-5.8048e-05,0.0082282,-0.00047614,0,0,0.050069,-0.021544,0,-0.0024759,0,0,0,0.027494,-6.6277e-05,0.0082282,-0.99007,0.011885,0.02449,4.73e-07,0.4,0.08,0
0.021928,0.0080798,0.027574,-0.00012183,0.0082357,-0.00042046,0,0,0.05028,-0.02173,0,-0.0021864,0,0,0,0.027581,-0.00012821,0.0082357,-0.86955,0.011896,0.024617,4.7864e-07,0.44,0.08,0
0.023943,0.0082396,0.027659,-0.0001588,0.00825,-0.00032634,0,0,0.050463,-0.021863,0,-0.001697,0,0,0,0.027663,-0.00016262,0.00825,-0.67204,0.011917,0.024717,4.8356e-07,0.48,0.08,0
0.025965,0.0084023,0.027724,-0.00017419,0.008265,-0.00021162,0,0,0.050594,-0.021942,0,-0.0011004,0,0,0,0.027726,-0.00017579,0.008265,-0.43456,0.011938,0.024784,4.8711e-07,0.52,0.08,0
0.027991,0.0085743,0.027762,-0.00017243,0.0082768,-9.0535e-05,0,0,0.050661,-0.021968,0,-0.00047078,0,0,0,0.027762,-0.00017272,0.0082768,-0.18569,0.011955,0.024814,4.8897e-07,0.56,0.08,0
0.030018,0.0087584,0.027768,-0.00015697,0.0082833,2.5525e-05,0,0,0.05066,-0.021945,0,0.00013273,0,0,0,0.027768,-0.00015699,0.0082833,0.052373,0.011965,0.024806,4.8898e-07,0.6,0.08,0
0.032043,0.0089535,0.027743,-0.00013064,0.0082836,0.00012749,0,0,0.050593,-0.021877,0,0.00066295,0,0,0,0.027743,-0.00013122,0.0082836,0.26206,0.011965,0.024764,4.872e-07,0.64,0.08,0
0.034065,0.0091561,0.02769,-9.6255e-05,0.0082781,0.00020834,0,0,0.050471,-0.021773,0,0.0010834,0,0,0,0.027692,-9.7817e-05,0.0082781,0.42958,0.011957,0.024691,4.8387e-07,0.68,0.08,0
0.036081,0.0093603,0.027616,-5.7081e-05,0.0082677,0.00026329,0,0,0.050306,-0.021645,0,0.0013691,0,0,0,0.027619,-5.9586e-05,0.0082677,0.54505,0.011942,0.024596,4.7936e-07,0.72,0.08,0
0.03809,0.0095589,0.027529,-1.6768e-05,0.0082537,0.00029004,0,0,0.050116,-0.021503,0,0.0015082,0,0,0,0.027532,-1.9821e-05,0.0082537,0.60319,0.011922,0.024487,4.7414e-07,0.76,0.08,0
0.04009,0.0097439,0.027438,2.1151e-05,0.0082377,0.00028892,0,0,0.04992,-0.021363,0,0.0015024,0,0,0,0.027441,1.8107e-05,0.0082377,0.60371,0.011899,0.024375,4.6874e-07,0.8,0.08,0
0.042083,0.0099077,0.02735,5.3866e-05,0.0082213,0.00026257,0,0,0.049736,-0.021235,0,0.0013654,0,0,0,0.027353,5.134e-05,0.0082213,0.55107,0.011875,0.024271,4.6364e-07,0.84,0.08,0
0.044069,0.010043,0.027275,7.966e-05,0.0082063,0.00021526,0,0,0.049577,-0.021129,0,0.0011194,0,0,0,0.027276,7.7956e-05,0.0082063,0.45349,0.011853,0.024181,4.5926e-07,0.88,0.08,0
0.046049,0.010144,0.027216,9.7887e-05,0.0081942,0.00015216,0,0,0.049457,-0.02105,0,0.00079122,0,0,0,0.027217,9.7033e-05,0.0081942,0.32147,0.011836,0.024113,4.5593e-07,0.92,0.08,0
0.048026,0.010207,0.027179,0.00010861,0.0081864,7.8643e-05,0,0,0.049382,-0.021002,0,0.00040894,0,0,0,0.02718,0.00010838,0.0081864,0.16645,0.011825,0.024071,4.5385e-07,0.96,0.08,0
0.05,0.010228,0.027167,0.00011214,0.0081837,0.00010152,0,0,0.049356,-0.020986,0,0.0005279,0,0,0,0.027167,0.00011176,0.0081837,0.21499,0.011821,0.024058,4.5317e-07,1,0.08,0
0,0,0.028441,0.012189,0.012189,0.0062894,0,0,0.042255,-1.0842e-18,0,0.032705,0,0,0,0.03059,0.010039,0.012189,18.87,0.017606,0.019565,3.6904e-07,0,0.12,0
0.0016902,0.0013082,0.028026,0.0087972,0.011047,0.005869,0,0,0.044146,-0.0058497,0,0.030519,0,0,0,0.029676,0.0071474,0.011047,15.7,0.015957,0.020854,4.1144e-07,0.04,0.12,0
0.0035317,0.0026001,0.028546,0.0058055,0.010306,0.004941,0,0,0.047426,-0.0117,0,0.025693,0,0,0,0.029574,0.0047784,0.010306,11.744,0.014886,0.022546,4.7147e-07,0.08,0.12,0
0.0054843,0.0037431,0.028805,0.0037235,0.0097586,0.0035481,0,0,0.049521,-0.015691,0,0.01845,0,0,0,0.029298,0.0032313,0.0097586,7.8988,0.014096,0.023493,4.9667e-07,0.12,0.12,0
0.0074934,0.0046734,0.028762,0.0025045,0.0093798,0.0022343,0,0,0.050393,-0.017876,0,0.011618,0,0,0,0.02895,0.0023157,0.0093798,4.8292,0.013549,0.023899,5.0008e-07,0.16,0.12,0
0.0095157,0.0053926,0.028501,0.001683,0.0090551,0.0011947,0,0,0.050558,-0.019168,0,0.0062125,0,0,0,0.028554,0.0016299,0.0090551,2.5458,0.01308,0.024086,4.9439e-07,0.2,0.12,0
0.011538,0.005934,0.028241,0.0011017,0.0088027,0.00044761,0,0,0.050539,-0.020023,0,0.0023276,0,0,0,0.028248,0.0010943,0.0088027,0.94464,0.012715,0.024237,4.8965e-07,0.24,0.12,0
0.013559,0.0063353,0.02805,0.00066862,0.0086155,-5.2977e-05,0,0,0.050529,-0.020662,0,-0.00027548,0,0,0,0.02805,0.00066852,0.0086155,-0.11086,0.012445,0.024399,4.8789e-07,0.28,0.12,0
0.01558,0.006633,0.027936,0.00034008,0.0084829,-0.00035487,0,0,0.050578,-0.021171,0,-0.0018453,0,0,0,0.027941,0.00033552,0.0084829,-0.73664,0.012253,0.024567,4.8872e-07,0.32,0.12,0
0.017605,0.0068596,0.027884,9.3941e-05,0.0083935,-0.00050211,0,0,0.050676,-0.021579,0,-0.002611,0,0,0,0.027894,8.4872e-05,0.0083935,-1.0348,0.012124,0.024725,4.9106e-07,0.36,0.12,0
0.019634,0.0070422,0.027874,-8.2738e-05,0.0083374,-0.00053369,0,0,0.050795,-0.021892,0,-0.0027752,0,0,0,0.027884,-9.2922e-05,0.0083374,-1.0932,0.012043,0.024858,4.9393e-07,0.4,0.12,0
0.021669,0.0072028,0.027886,-0.00020053,0.0083056,-0.00048367,0,0,0.050909,-0.022116,0,-0.0025151,0,0,0,0.027894,-0.00020886,0.0083056,-0.9863,0.011997,0.02496,4.9663e-07,0.44,0.12,0
0.023707,0.0073575,0.027905,-0.00026987,0.0082906,-0.00038069,0,0,0.050998,-0.022257,0,-0.0019796,0,0,0,0.02791,-0.00027501,0.0082906,-0.77397,0.011975,0.025027,4.9872e-07,0.48,0.12,0
0.025749,0.0075175,0.027922,-0.00030061,0.0082863,-0.00024783,0,0,0.051052,-0.022326,0,-0.0012887,0,0,0,0.027924,-0.00030278,0.0082863,-0.50309,0.011969,0.025061,4.9996e-07,0.52,0.12,0
0.027791,0.0076891,0.027928,-0.00030082,0.0082883,-0.00010331,0,0,0.051064,-0.022332,0,-0.0005372,0,0,0,0.027929,-0.0003012,0.0082883,-0.20968,0.011972,0.025064,5.002e-07,0.56,0.12,0
0.029834,0.0078746,0.027921,-0.00027636,0.0082934,3.8298e-05,0,0,0.051032,-0.022281,0,0.00019915,0,0,0,0.027921,-0.00027642,0.0082934,0.077819,0.011979,0.025038,4.9933e-07,0.6,0.12,0
0.031874,0.0080731,0.027898,-0.00023171,0.0082999,0.00016489,0,0,0.050955,-0.022182,0,0.00085741,0,0,0,0.027899,-0.00023268,0.0082999,0.33583,0.011989,0.024983,4.9733e-07,0.64,0.12,0
0.03391,0.0082804,0.02786,-0.00017154,0.0083065,0.00026654,0,0,0.050839,-0.022043,0,0.001386,0,0,0,0.027862,-0.00017408,0.0083065,0.54474,0.011998,0.024904,4.9429e-07,0.68,0.12,0
0.035941,0.0084902,0.027809,-0.00010179,0.0083123,0.00033603,0,0,0.050693,-0.021877,0,0.0017474,0,0,0,0.027814,-0.00010583,0.0083123,0.68967,0.012007,0.024806,4.9043e-07,0.72,0.12,0
0.037965,0.0086949,0.027752,-2.9454e-05,0.0083167,0.00036964,0,0,0.050531,-0.0217,0,0.0019222,0,0,0,0.027757,-3.4371e-05,0.0083167,0.76217,0.012013,0.024698,4.861e-07,0.76,0.12,0
0.039983,0.008886,0.027692,3.8578e-05,0.0083193,0.0003675,0,0,0.05037,-0.02153,0,0.001911,0,0,0,0.027697,3.3695e-05,0.0083193,0.76124,0.012017,0.024591,4.8172e-07,0.8,0.12,0
0.041995,0.0090551,0.027637,9.6945e-05,0.0083202,0.00033313,0,0,0.050224,-0.02138,0,0.0017323,0,0,0,0.027641,9.2916e-05,0.0083202,0.69292,0.012018,0.024494,4.7768e-07,0.84,0.12,0
0.044001,0.0091948,0.02759,0.00014255,0.0083197,0.00027236,0,0,0.050103,-0.021261,0,0.0014162,0,0,0,0.027593,0.00013985,0.0083197,0.56846,0.012017,0.024413,4.7429e-07,0.88,0.12,0
0.046003,0.0092991,0.027554,0.00017446,0.0083187,0.00019204,0,0,0.050013,-0.021175,0,0.00099862,0,0,0,0.027556,0.00017311,0.0083187,0.40184,0.012016,0.024354,4.7177e-07,0.92,0.12,0
0.048002,0.0093635,0.027532,0.00019306,0.0083176,9.9091e-05,0,0,0.049959,-0.021124,0,0.00051527,0,0,0,0.027533,0.0001927,0.0083176,0.20766,0.012014,0.024318,4.7022e-07,0.96,0.12,0
0.05,0.0093852,0.027525,0.00019915,0.0083173,0.00010461,0,0,0.04994,-0.021107,0,0.00054398,0,0,0,0.027525,0.00019875,0.0083173,0.21934,0.012014,0.024307,4.6973e-07,1,0.12,0
0,0,0.027594,0.011826,0.011826,0.0053478,0,0,0.040997,6.5052e-19,0,0.027809,0,0,0,0.029237,0.010183,0.011826,17.075,0.017082,0.018287,3.0558e-07,0,0.16,0
0.0016399,0.0011123,0.027342,0.0093381,0.011004,0.0051036,0,0,0.042479,-0.0043314,0,0.026539,0,0,0,0.028688,0.007992,0.011004,14.775,0.015895,0.019366,3.4283e-07,0.04,0.16,0
0.0033983,0.0021993,0.027905,0.0070487,0.010486,0.0044707,0,0,0.045289,-0.0089372,0,0.023248,0,0,0,0.028823,0.0061307,0.010486,11.603,0.015147,0.020858,3.9844e-07,0.08,0.16,0
0.005263,0.00318,0.028309,0.0050861,0.010019,0.003475,0,0,0.047555,-0.012824,0,0.01807,0,0,0,0.028818,0.0045773,0.010019,8.3305,0.014471,0.02203,4.3823e-07,0.12,0.16,0
0.0072027,0.0040025,0.028503,0.0036086,0.0096333,0.0023759,0,0,0.04906,-0.015664,0,0.012355,0,0,0,0.028727,0.0033839,0.0096333,5.4035,0.013915,0.022868,4.6307e-07,0.16,0.16,0
0.0091878,0.0046537,0.028523,0.0025288,0.0093156,0.001392,0,0,0.049939,-0.017646,0,0.0072384,0,0,0,0.028597,0.0024545,0.0093156,3.0566,0.013456,0.023477,4.7819e-07,0.2,0.16,0
0.011198,0.0051485,0.028447,0.0017048,0.0090456,0.00061498,0,0,0.050444,-0.019086,0,0.0031979,0,0,0,0.028461,0.0016907,0.0090456,1.3167,0.013066,0.023956,4.8817e-07,0.24,0.16,0
0.013223,0.0055155,0.028351,0.0010619,0.008824,6.0984e-05,0,0,0.050771,-0.020181,0,0.00031712,0,0,0,0.028351,0.0010618,0.008824,0.12804,0.012746,0.024355,4.9581e-07,0.28,0.16,0
0.01526,0.0057867,0.028268,0.00055984,0.0086484,-0.00029037,0,0,0.051012,-0.02103,0,-0.0015099,0,0,0,0.028271,0.00055679,0.0086484,-0.60033,0.012492,0.024684,5.0192e-07,0.32,0.16,0
0.017304,0.0059928,0.028207,0.00017822,0.0085156,-0.00047332,0,0,0.051198,-0.021677,0,-0.0024612,0,0,0,0.028215,0.00017023,0.0085156,-0.96717,0.0123,0.024942,5.066e-07,0.36,0.16,0
0.019355,0.0061604,0.028166,-9.7172e-05,0.0084206,-0.00052661,0,0,0.051338,-0.022146,0,-0.0027384,0,0,0,0.028176,-0.00010698,0.0084206,-1.0671,0.012163,0.025129,5.0983e-07,0.4,0.16,0
0.021411,0.0063106,0.028139,-0.00028125,0.0083573,-0.00048751,0,0,0.051432,-0.02246,0,-0.0025351,0,0,0,0.028147,-0.00028961,0.0083573,-0.98245,0.012072,0.025249,5.1177e-07,0.44,0.16,0
0.02347,0.0064591,0.028122,-0.00039086,0.0083193,-0.00038794,0,0,0.051486,-0.022646,0,-0.0020173,0,0,0,0.028127,-0.00039614,0.0083193,-0.77938,0.012017,0.025317,5.1267e-07,0.48,0.16,0
0.02553,0.0066162,0.02811,-0.00044238,0.0083004,-0.00025294,0,0,0.051506,-0.022731,0,-0.0013153,0,0,0,0.028113,-0.00044462,0.0083004,-0.50752,0.01199,0.025343,5.1279e-07,0.52,0.16,0
0.027591,0.0067878,0.028101,-0.0004485,0.0082957,-0.0001015,0,0,0.051493,-0.022735,0,-0.00052779,0,0,0,0.028101,-0.00044886,0.0082957,-0.20369,0.011983,0.025336,5.1224e-07,0.56,0.16,0
0.02965,0.0069758,0.028089,-0.00041707,0.0083015,5.0998e-05,0,0,0.051447,-0.022668,0,0.00026519,0,0,0,0.028089,-0.00041716,0.0083015,0.1025,0.011991,0.0253,5.1099e-07,0.6,0.16,0
0.031706,0.0071789,0.028071,-0.00035323,0.0083155,0.00019064,0,0,0.051366,-0.022539,0,0.00099134,0,0,0,0.028073,-0.00035451,0.0083155,0.38425,0.012011,0.025235,5.0894e-07,0.64,0.16,0
0.033759,0.0073927,0.028047,-0.00026303,0.0083352,0.00030465,0,0,0.05125,-0.022355,0,0.0015842,0,0,0,0.02805,-0.00026631,0.0083352,0.61647,0.01204,0.025145,5.0607e-07,0.68,0.16,0
0.035806,0.0076102,0.028016,-0.00015585,0.008358,0.00038285,0,0,0.051111,-0.022136,0,0.0019908,0,0,0,0.028021,-0.00016105,0.008358,0.77846,0.012073,0.025034,5.0252e-07,0.72,0.16,0
0.037848,0.0078229,0.027981,-4.3712e-05,0.0083813,0.0004197,0,0,0.05096,-0.021905,0,0.0021824,0,0,0,0.027988,-4.9996e-05,0.0083813,0.85779,0.012106,0.024916,4.9863e-07,0.76,0.16,0
0.039883,0.0080215,0.027947,6.1439e-05,0.0084026,0.00041514,0,0,0.050816,-0.021687,0,0.0021587,0,0,0,0.027953,5.526e-05,0.0084026,0.85272,0.012137,0.024802,4.9481e-07,0.8,0.16,0
0.041913,0.0081972,0.027917,0.00015063,0.0084204,0.00037394,0,0,0.050692,-0.021501,0,0.0019445,0,0,0,0.027922,0.00014559,0.0084204,0.77142,0.012163,0.024702,4.9143e-07,0.84,0.16,0
0.043938,0.0083422,0.027894,0.00021918,0.0084339,0.00030371,0,0,0.050596,-0.021358,0,0.0015793,0,0,0,0.027897,0.00021585,0.0084339,0.62868,0.012182,0.024623,4.8875e-07,0.88,0.16,0
0.045961,0.0084501,0.027878,0.00026629,0.0084432,0.00021293,0,0,0.05053,-0.02126,0,0.0011073,0,0,0,0.027879,0.00026465,0.0084432,0.44182,0.012196,0.024569,4.8686e-07,0.92,0.16,0
0.047981,0.0085167,0.027868,0.00029334,0.0084485,0.00010945,0,0,0.050492,-0.021203,0,0.00056913,0,0,0,0.027869,0.00029291,0.0084485,0.22741,0.012203,0.024537,4.8576e-07,0.96,0.16,0
0.05,0.0085391,0.027865,0.00030211,0.0084502,0.000108,0,0,0.050479,-0.021185,0,0.00056161,0,0,0,0.027866,0.00030169,0.0084502,0.2245,0.012206,0.024527,4.8544e-07,1,0.16,0
0,0,0.027158,0.011639,0.011639,0.0046235,0,0,0.040349,4.3368e-19,0,0.024042,0,0,0,0.028431,0.010366,0.011639,15.394,0.016812,0.017463,2.6863e-07,0,0.2,0
0.001614,0.00096168,0.026992,0.0097156,0.011012,0.0044443,0,0,0.041548,-0.0033715,0,0.02311,0,0,0,0.028068,0.0086394,0.011012,13.613,0.015907,0.018358,2.9993e-07,0.04,0.2,0
0.0033238,0.0018851,0.027509,0.0078938,0.010621,0.0039473,0,0,0.04391,-0.0070906,0,0.020526,0,0,0,0.028274,0.0071293,0.010621,10.962,0.015341,0.019633,3.476e-07,0.08,0.2,0
0.0051268,0.0027171,0.027938,0.0061445,0.010225,0.0031704,0,0,0.046054,-0.010609,0,0.016486,0,0,0,0.02839,0.0056926,0.010225,8.1112,0.014769,0.020805,3.8952e-07,0.12,0.2,0
0.0070081,0.0034203,0.028234,0.0046302,0.0098594,0.0022696,0,0,0.047775,-0.013596,0,0.011802,0,0,0,0.028451,0.004414,0.0098594,5.4427,0.014241,0.021829,4.2426e-07,0.16,0.2,0
0.0089488,0.0039809,0.028396,0.0033748,0.0095313,0.0014,0,0,0.049049,-0.016007,0,0.0072799,0,0,0,0.028474,0.0032967,0.0095313,3.1925,0.013768,0.022711,4.5231e-07,0.2,0.2,0
0.010932,0.0044071,0.028457,0.0023412,0.0092394,0.00066806,0,0,0.049966,-0.017936,0,0.0034739,0,0,0,0.028474,0.0023241,0.0092394,1.4644,0.013346,0.023469,4.7475e-07,0.24,0.2,0
0.012946,0.0047208,0.028457,0.0014908,0.0089842,0.00012129,0,0,0.050628,-0.019483,0,0.00063069,0,0,0,0.028457,0.0014903,0.0089842,0.2577,0.012977,0.02411,4.923e-07,0.28,0.2,0
0.014982,0.0049506,0.028427,0.00080634,0.0087699,-0.00023626,0,0,0.051108,-0.020705,0,-0.0012286,0,0,0,0.028429,0.00080432,0.0087699,-0.49006,0.012668,0.024628,5.0532e-07,0.32,0.2,0
0.017035,0.0051254,0.028385,0.00027924,0.0085991,-0.00042765,0,0,0.051442,-0.021632,0,-0.0022238,0,0,0,0.028391,0.00027273,0.0085991,-0.87153,0.012421,0.025017,5.1411e-07,0.36,0.2,0
0.019098,0.0052705,0.02834,-0.00010143,0.0084715,-0.00048924,0,0,0.051658,-0.02229,0,-0.002544,0,0,0,0.028348,-0.00010984,0.0084715,-0.9852,0.012237,0.025284,5.193e-07,0.4,0.2,0
0.021167,0.0054059,0.028299,-0.00035483,0.0083833,-0.00045927,0,0,0.051781,-0.022719,0,-0.0023882,0,0,0,0.028306,-0.00036219,0.0083833,-0.91802,0.012109,0.025449,5.2185e-07,0.44,0.2,0
0.02324,0.0055458,0.028268,-0.00050659,0.0083283,-0.00037015,0,0,0.051842,-0.022971,0,-0.0019248,0,0,0,0.028272,-0.00051135,0.0083283,-0.7369,0.01203,0.025538,5.2279e-07,0.48,0.2,0
0.025315,0.005699,0.028248,-0.00058233,0.0082997,-0.000245,0,0,0.051866,-0.023093,0,-0.001274,0,0,0,0.02825,-0.00058441,0.0082997,-0.48684,0.011988,0.025577,5.2293e-07,0.52,0.2,0
0.027389,0.0058703,0.02824,-0.00060015,0.0082919,-9.9404e-05,0,0,0.051865,-0.023119,0,-0.0005169,0,0,0,0.02824,-0.00060049,0.0082919,-0.19748,0.011977,0.025581,5.2267e-07,0.56,0.2,0
0.029464,0.0060611,0.028238,-0.00056789,0.0083011,5.3741e-05,0,0,0.051837,-0.023059,0,0.00027945,0,0,0,0.028238,-0.00056799,0.0083011,0.10689,0.01199,0.025553,5.2197e-07,0.6,0.2,0
0.031536,0.00627,0.028238,-0.00048799,0.0083249,0.00019979,0,0,0.051773,-0.022913,0,0.0010389,0,0,0,0.028239,-0.00048938,0.0083249,0.39847,0.012025,0.025491,5.2054e-07,0.64,0.2,0
0.033606,0.0064919,0.028234,-0.00036606,0.0083603,0.00032224,0,0,0.051671,-0.022689,0,0.0016757,0,0,0,0.028237,-0.00036969,0.0083603,0.64546,0.012076,0.025394,5.1821e-07,0.68,0.2,0
0.03567,0.0067193,0.028226,-0.00021583,0.008403,0.00040644,0,0,0.051539,-0.022409,0,0.0021135,0,0,0,0.028231,-0.00022164,0.008403,0.81855,0.012138,0.02527,5.1507e-07,0.72,0.2,0
0.037729,0.0069425,0.028216,-5.7169e-05,0.0084475,0.00044419,0,0,0.051397,-0.022112,0,0.0023098,0,0,0,0.028223,-6.4145e-05,0.0084475,0.89987,0.012202,0.025136,5.1155e-07,0.76,0.2,0
0.039782,0.007151,0.028207,9.0269e-05,0.0084891,0.00043565,0,0,0.051266,-0.021837,0,0.0022654,0,0,0,0.028214,8.3521e-05,0.0084891,0.88749,0.012262,0.02501,5.082e-07,0.8,0.2,0
0.04183,0.0073349,0.028203,0.00021268,0.0085246,0.00038784,0,0,0.051163,-0.021611,0,0.0020168,0,0,0,0.028208,0.0002073,0.0085246,0.79372,0.012313,0.024906,5.0548e-07,0.84,0.2,0
0.043875,0.0074861,0.028203,0.00030412,0.0085522,0.00031111,0,0,0.051092,-0.021445,0,0.0016178,0,0,0,0.028207,0.00030065,0.0085522,0.63881,0.012353,0.024831,5.0356e-07,0.88,0.2,0
0.045917,0.0075983,0.028207,0.00036505,0.0085716,0.00021576,0,0,0.051052,-0.021337,0,0.0011219,0,0,0,0.028209,0.00036338,0.0085716,0.44397,0.012381,0.024782,5.0242e-07,0.92,0.2,0
0.047959,0.0076672,0.028211,0.00039912,0.008583,0.00011008,0,0,0.051032,-0.021278,0,0.00057243,0,0,0,0.028211,0.00039868,0.008583,0.22678,0.012398,0.024757,5.0186e-07,0.96,0.2,0
0.05,0.0076904,0.028212,0.00040998,0.0085867,0.00011165,0,0,0.051027,-0.02126,0,0.0005806,0,0,0,0.028213,0.00040953,0.0085867,0.23009,0.012403,0.02475,5.0174e-07,1,0.2,0
0,0,0.026984,0.011564,0.011564,0.0040511,0,0,0.04009,-4.3368e-19,0,0.021066,0,0,0,0.027983,0.010565,0.011564,13.86,0.016704,0.016941,2.4676e-07,0,0.24,0
0.0016036,0.00084262,0.026867,0.010048,0.011075,0.0039037,0,0,0.041062,-0.0026697,0,0.020299,0,0,0,0.027729,0.0091859,0.011075,12.45,0.015997,0.017675,2.7271e-07,0.04,0.24,0
0.0032849,0.0016321,0.027311,0.0085478,0.010758,0.0034606,0,0,0.043039,-0.0057457,0,0.017995,0,0,0,0.027929,0.0079299,0.010758,10.124,0.015539,0.018746,3.1254e-07,0.08,0.24,0
0.0050467,0.0023314,0.027709,0.0069926,0.010411,0.0028082,0,0,0.044977,-0.0088867,0,0.014602,0,0,0,0.028083,0.0066187,0.010411,7.5842,0.015038,0.019842,3.5234e-07,0.12,0.24,0
0.0068831,0.0029148,0.028025,0.0055095,0.01006,0.0020461,0,0,0.046708,-0.011832,0,0.01064,0,0,0,0.028209,0.0053251,0.01006,5.1506,0.014531,0.020922,3.9038e-07,0.16,0.24,0
0.0087833,0.0033731,0.028244,0.004158,0.0097206,0.0012875,0,0,0.048161,-0.014463,0,0.006695,0,0,0,0.028313,0.0040894,0.0097206,3.0511,0.014041,0.021956,4.2543e-07,0.2,0.24,0
0.010736,0.0037137,0.028375,0.0029554,0.009399,0.00062727,0,0,0.049336,-0.016753,0,0.0032618,0,0,0,0.02839,0.00294,0.009399,1.4127,0.013576,0.022914,4.5637e-07,0.24,0.24,0
0.01273,0.0039569,0.028435,0.0019131,0.0091046,0.0001234,0,0,0.05026,-0.018698,0,0.00064166,0,0,0,0.028436,0.0019126,0.0091046,0.26656,0.013151,0.023758,4.8196e-07,0.28,0.24,0
0.014757,0.0041303,0.028446,0.0010497,0.0088486,-0.00020715,0,0,0.050953,-0.020277,0,-0.0010772,0,0,0,0.028447,0.0010481,0.0088486,-0.43321,0.012781,0.024451,5.0122e-07,0.32,0.24,0
0.016806,0.0042623,0.028422,0.00037998,0.0086407,-0.00038233,0,0,0.051432,-0.021478,0,-0.0019881,0,0,0,0.028428,0.00037477,0.0086407,-0.78098,0.012481,0.024968,5.1405e-07,0.36,0.24,0
0.018871,0.0043772,0.02838,-9.994e-05,0.0084842,-0.00043875,0,0,0.05173,-0.022319,0,-0.0022815,0,0,0,0.028387,-0.0001067,0.0084842,-0.88239,0.012255,0.025316,5.2139e-07,0.4,0.24,0
0.020945,0.004493,0.028337,-0.0004147,0.0083765,-0.00041648,0,0,0.051896,-0.022857,0,-0.0021657,0,0,0,0.028342,-0.00042073,0.0083765,-0.82973,0.012099,0.025528,5.2495e-07,0.44,0.24,0
0.023023,0.0046214,0.028306,-0.00060275,0.0083108,-0.00034606,0,0,0.051986,-0.023175,0,-0.0017995,0,0,0,0.02831,-0.00060689,0.0083108,-0.68576,0.012004,0.025648,5.2663e-07,0.48,0.24,0
0.025104,0.0047687,0.028297,-0.00070379,0.0082779,-0.00024455,0,0,0.052049,-0.023353,0,-0.0012717,0,0,0,0.028299,-0.00070585,0.0082779,-0.48311,0.011957,0.025718,5.2788e-07,0.52,0.24,0
0.027187,0.0049382,0.028311,-0.00074288,0.0082705,-0.00011778,0,0,0.052106,-0.023435,0,-0.00061246,0,0,0,0.028312,-0.00074336,0.0082705,-0.23226,0.011946,0.02576,5.2929e-07,0.56,0.24,0
0.029272,0.0051311,0.028341,-0.0007226,0.0082857,2.8327e-05,0,0,0.052145,-0.023422,0,0.0001473,0,0,0,0.028341,-0.00072263,0.0082857,0.055843,0.011968,0.025769,5.3056e-07,0.6,0.24,0
0.031358,0.0053459,0.028377,-0.00063493,0.0083225,0.00017928,0,0,0.052141,-0.023289,0,0.00093223,0,0,0,0.028378,-0.00063604,0.0083225,0.35404,0.012021,0.025732,5.3096e-07,0.64,0.24,0
0.033444,0.0055776,0.028408,-0.00048075,0.0083782,0.00031164,0,0,0.052078,-0.023033,0,0.0016205,0,0,0,0.028411,-0.00048412,0.0083782,0.61798,0.012102,0.02564,5.2997e-07,0.68,0.24,0
0.035525,0.0058175,0.028433,-0.00028051,0.0084457,0.0004028,0,0,0.051967,-0.022688,0,0.0020946,0,0,0,0.028438,-0.00028616,0.0084457,0.80356,0.012199,0.025506,5.277e-07,0.72,0.24,0
0.037601,0.0060539,0.028454,-6.745e-05,0.008516,0.00044046,0,0,0.051839,-0.022317,0,0.0022904,0,0,0,0.028461,-7.4251e-05,0.008516,0.88454,0.012301,0.025356,5.2482e-07,0.76,0.24,0
0.039672,0.0062746,0.028477,0.00012655,0.0085811,0.00042621,0,0,0.051729,-0.021982,0,0.0022163,0,0,0,0.028483,0.00012014,0.0085811,0.86111,0.012395,0.025221,5.2221e-07,0.8,0.24,0
0.041739,0.0064684,0.028504,0.00028175,0.0086358,0.00037152,0,0,0.051658,-0.021721,0,0.0019319,0,0,0,0.028509,0.00027686,0.0086358,0.75406,0.012474,0.025119,5.2049e-07,0.84,0.24,0
0.043805,0.0066266,0.028535,0.00039229,0.0086781,0.00029117,0,0,0.051627,-0.021543,0,0.0015141,0,0,0,0.028538,0.00038928,0.0086781,0.59271,0.012535,0.025054,5.1978e-07,0.88,0.24,0
0.045869,0.0067432,0.028563,0.00046223,0.0087077,0.00019779,0,0,0.051625,-0.021438,0,0.0010285,0,0,0,0.028565,0.00046084,0.0087077,0.40324,0.012578,0.025021,5.198e-07,0.92,0.24,0
0.047934,0.0068144,0.028584,0.00049953,0.008725,9.9488e-05,0,0,0.051633,-0.021386,0,0.00051734,0,0,0,0.028584,0.00049918,0.008725,0.20297,0.012603,0.025008,5.2008e-07,0.96,0.24,0
0.05,0.0068384,0.028591,0.00051109,0.0087307,0.00011512,0,0,0.051637,-0.021371,0,0.00059861,0,0,0,0.028592,0.00051061,0.0087307,0.23489,0.012611,0.025006,5.2026e-07,1,0.24,0
0,0,0.027021,0.01158,0.01158,0.0035966,0,0,0.040145,-4.3368e-19,0,0.018703,0,0,0,0.027818,0.010784,0.01158,12.49,0.016727,0.01665,2.3523e-07,0,0.28,0
0.0016058,0.0007481,0.026939,0.010379,0.011196,0.0034687,0,0,0.040933,-0.0021219,0,0.018037,0,0,0,0.027636,0.0096822,0.011196,11.365,0.016171,0.017247,2.5668e-07,0.04,0.28,0
0.0032747,0.0014255,0.027298,0.0091062,0.010921,0.0030449,0,0,0.04258,-0.0047193,0,0.015834,0,0,0,0.027794,0.0086101,0.010921,9.2541,0.015775,0.018139,2.8984e-07,0.08,0.28,0
0.0050122,0.0020062,0.027634,0.0077036,0.010601,0.002466,0,0,0.044286,-0.0075344,0,0.012823,0,0,0,0.027935,0.007403,0.010601,6.9494,0.015313,0.019134,3.2618e-07,0.12,0.28,0
0.0068176,0.0024737,0.027915,0.0062682,0.010255,0.0017999,0,0,0.045916,-0.010365,0,0.0093593,0,0,0,0.028064,0.0061196,0.010255,4.7208,0.014813,0.020196,3.6402e-07,0.16,0.28,0
0.0086855,0.0028239,0.028125,0.0048604,0.0098955,0.001131,0,0,0.047396,-0.013091,0,0.0058812,0,0,0,0.028179,0.0048055,0.0098955,2.7767,0.014294,0.02129,4.0176e-07,0.2,0.28,0
0.010609,0.0030668,0.028261,0.0035196,0.0095343,0.00054212,0,0,0.04869,-0.015638,0,0.0028191,0,0,0,0.028273,0.0035077,0.0095343,1.2546,0.013772,0.02237,4.3731e-07,0.24,0.28,0
0.012581,0.003225,0.028331,0.0022985,0.0091888,9.6222e-05,0,0,0.049769,-0.017915,0,0.00050035,0,0,0,0.028331,0.0022981,0.0091888,0.21177,0.013273,0.023363,4.6796e-07,0.28,0.28,0
0.014591,0.0033284,0.028344,0.0012646,0.0088827,-0.00018763,0,0,0.0506,-0.019807,0,-0.00097566,0,0,0,0.028345,0.0012633,0.0088827,-0.39696,0.01283,0.02419,4.9125e-07,0.32,0.28,0
0.016629,0.0034071,0.028316,0.00046696,0.0086348,-0.00032998,0,0,0.05117,-0.021236,0,-0.0017159,0,0,0,0.02832,0.00046305,0.0086348,-0.67877,0.012472,0.024802,5.0641e-07,0.36,0.28,0
0.018684,0.003485,0.028264,-9.2989e-05,0.0084513,-0.00037623,0,0,0.051513,-0.022215,0,-0.0019564,0,0,0,0.028269,-9.798e-05,0.0084513,-0.76001,0.012207,0.025204,5.1474e-07,0.4,0.28,0
0.02075,0.0035774,0.028215,-0.00045012,0.0083293,-0.0003675,0,0,0.051702,-0.022827,0,-0.001911,0,0,0,0.028219,-0.00045483,0.0083293,-0.7344,0.012031,0.025446,5.1881e-07,0.44,0.28,0
0.022821,0.0036918,0.028195,-0.00065951,0.0082605,-0.00033273,0,0,0.051828,-0.023192,0,-0.0017302,0,0,0,0.028198,-0.00066335,0.0082605,-0.6606,0.011932,0.025594,5.2153e-07,0.48,0.28,0
0.024896,0.0038308,0.028218,-0.000785,0.0082299,-0.0002762,0,0,0.051969,-0.023439,0,-0.0014362,0,0,0,0.028221,-0.00078763,0.0082299,-0.54557,0.011888,0.025714,5.2504e-07,0.52,0.28,0
0.026978,0.0039955,0.028283,-0.00086316,0.008226,-0.00018633,0,0,0.052149,-0.023632,0,-0.0009689,0,0,0,0.028285,-0.00086435,0.008226,-0.36626,0.011882,0.025832,5.2999e-07,0.56,0.28,0
0.029068,0.0041874,0.028375,-0.0008809,0.0082483,-5.2908e-05,0,0,0.05233,-0.023736,0,-0.00027512,0,0,0,0.028375,-0.000881,0.0082483,-0.10361,0.011914,0.025927,5.3536e-07,0.6,0.28,0
0.031164,0.0044068,0.028473,-0.00080124,0.0083017,0.00010804,0,0,0.052447,-0.023668,0,0.00056179,0,0,0,0.028474,-0.00080164,0.0083017,0.21144,0.011991,0.02595,5.3943e-07,0.64,0.28,0
0.033264,0.0046493,0.028562,-0.0006134,0.0083845,0.00025941,0,0,0.052461,-0.023394,0,0.001349,0,0,0,0.028564,-0.00061571,0.0083845,0.5094,0.012111,0.025881,5.4102e-07,0.68,0.28,0
0.035361,0.0049043,0.028636,-0.00035046,0.0084855,0.00036263,0,0,0.05239,-0.022974,0,0.0018857,0,0,0,0.02864,-0.000355,0.0084855,0.71665,0.012257,0.02574,5.403e-07,0.72,0.28,0
0.037455,0.0051572,0.028701,-7.1512e-05,0.0085888,0.00040004,0,0,0.052291,-0.022517,0,0.0020802,0,0,0,0.028706,-7.7073e-05,0.0085888,0.79641,0.012406,0.025576,5.3856e-07,0.76,0.28,0
0.039545,0.0053924,0.028767,0.00017271,0.0086819,0.00037755,0,0,0.052221,-0.022124,0,0.0019633,0,0,0,0.028772,0.00016772,0.0086819,0.75634,0.01254,0.025439,5.3729e-07,0.8,0.28,0
0.041633,0.0055973,0.028837,0.00035633,0.0087581,0.00031557,0,0,0.052206,-0.021845,0,0.0016409,0,0,0,0.028841,0.00035283,0.0087581,0.63472,0.012651,0.025353,5.3737e-07,0.84,0.28,0
0.043721,0.0057627,0.028909,0.00047745,0.0088159,0.00023558,0,0,0.052242,-0.02168,0,0.001225,0,0,0,0.028911,0.0004755,0.0088159,0.4747,0.012734,0.025317,5.3873e-07,0.88,0.28,0
0.045812,0.0058832,0.028971,0.00054743,0.0088556,0.00015296,0,0,0.0523,-0.021601,0,0.00079538,0,0,0,0.028972,0.00054661,0.0088556,0.30832,0.012791,0.025315,5.4068e-07,0.92,0.28,0
0.047905,0.0059563,0.029014,0.00058153,0.0088786,7.4483e-05,0,0,0.052352,-0.021572,0,0.00038731,0,0,0,0.029014,0.00058134,0.0088786,0.15009,0.012825,0.025325,5.4232e-07,0.96,0.28,0
0.05,0.0059807,0.029029,0.00059144,0.0088862,0.00011751,0,0,0.052372,-0.021566,0,0.00061105,0,0,0,0.02903,0.00059095,0.0088862,0.23675,0.012836,0.025331,5.4299e-07,1,0.28,0
0,0,0.027278,0.011691,0.011691,0.0032349,0,0,0.040527,1.0842e-19,0,0.016822,0,0,0,0.027923,0.011046,0.011691,11.271,0.016886,0.016564,2.3221e-07,0,0.32,0
0.0016211,0.00067287,0.027217,0.010724,0.011382,0.0031258,0,0,0.041169,-0.0017105,0,0.016254,0,0,0,0.027789,0.010152,0.011382,10.38,0.016441,0.017055,2.5034e-07,0.04,0.32,0
0.0032935,0.0012545,0.027491,0.0096071,0.011129,0.0027112,0,0,0.04254,-0.0039582,0,0.014098,0,0,0,0.027893,0.0092051,0.011129,8.4336,0.016076,0.017804,2.7846e-07,0.08,0.32,0
0.0050243,0.0017286,0.027743,0.0083147,0.010817,0.0021887,0,0,0.044006,-0.0065066,0,0.011381,0,0,0,0.027986,0.0080712,0.010817,6.3487,0.015625,0.018694,3.1126e-07,0.12,0.32,0
0.0068141,0.0020856,0.027945,0.0069288,0.010462,0.0016011,0,0,0.045455,-0.0091865,0,0.0083256,0,0,0,0.028066,0.0068075,0.010462,4.3317,0.015112,0.019687,3.4682e-07,0.16,0.32,0
0.0086607,0.0023258,0.028081,0.0054864,0.01007,0.001005,0,0,0.046829,-0.011918,0,0.005226,0,0,0,0.028126,0.0054418,0.01007,2.5418,0.014546,0.020761,3.8367e-07,0.2,0.32,0
0.01056,0.0024626,0.028154,0.0040272,0.0096545,0.00048145,0,0,0.0481,-0.014631,0,0.0025035,0,0,0,0.028164,0.0040176,0.0096545,1.1427,0.013945,0.021879,4.1996e-07,0.24,0.32,0
0.012509,0.0025237,0.02816,0.0026276,0.0092364,9.4041e-05,0,0,0.049202,-0.017183,0,0.00048901,0,0,0,0.028161,0.0026272,0.0092364,0.21102,0.013341,0.022954,4.5192e-07,0.28,0.32,0
0.014497,0.0025458,0.028114,0.0014337,0.0088643,-0.00013025,0,0,0.050049,-0.01932,0,-0.00067728,0,0,0,0.028115,0.0014331,0.0088643,-0.2797,0.012804,0.023851,4.7557e-07,0.32,0.32,0
0.016513,0.0025634,0.028035,0.00054327,0.0085736,-0.00024087,0,0,0.0506,-0.020879,0,-0.0012525,0,0,0,0.028037,0.00054115,0.0085736,-0.50195,0.012384,0.024489,4.8978e-07,0.36,0.32,0
0.018545,0.0026,0.027944,-6.4008e-05,0.008364,-0.0002888,0,0,0.050908,-0.021913,0,-0.0015017,0,0,0,0.027947,-6.6985e-05,0.008364,-0.5907,0.012081,0.024893,4.9678e-07,0.4,0.32,0
0.020585,0.0026669,0.027879,-0.00044029,0.0082315,-0.0003194,0,0,0.051083,-0.022547,0,-0.0016609,0,0,0,0.027882,-0.00044389,0.0082315,-0.64612,0.01189,0.025138,5.0034e-07,0.44,0.32,0
0.022631,0.002766,0.027881,-0.00064751,0.0081702,-0.00034829,0,0,0.051249,-0.022926,0,-0.0018111,0,0,0,0.027886,-0.00065176,0.0081702,-0.69934,0.011801,0.025307,5.043e-07,0.48,0.32,0
0.024685,0.0028936,0.027969,-0.00079145,0.0081531,-0.00037436,0,0,0.05152,-0.023256,0,-0.0019467,0,0,0,0.027973,-0.00079632,0.0081531,-0.74563,0.011777,0.025501,5.1164e-07,0.52,0.32,0
0.026753,0.0030477,0.028123,-0.00094556,0.0081533,-0.00034643,0,0,0.051922,-0.023657,0,-0.0018014,0,0,0,0.028127,-0.00094969,0.0081533,-0.6827,0.011777,0.025761,5.2281e-07,0.56,0.32,0
0.028839,0.0032322,0.028319,-0.0010509,0.0081805,-0.00023035,0,0,0.052361,-0.024002,0,-0.0011978,0,0,0,0.028321,-0.0010527,0.0081805,-0.44934,0.011816,0.026017,5.3544e-07,0.6,0.32,0
0.030942,0.0034525,0.028518,-0.0010076,0.008253,-4.1771e-05,0,0,0.052688,-0.024078,0,-0.00021721,0,0,0,0.028518,-0.0010077,0.008253,-0.081059,0.011921,0.026155,5.4571e-07,0.64,0.32,0
0.033054,0.003706,0.028692,-0.00077677,0.0083747,0.00014741,0,0,0.052826,-0.023794,0,0.00076651,0,0,0,0.028693,-0.00077751,0.0083747,0.28658,0.012097,0.026126,5.5142e-07,0.68,0.32,0
0.035168,0.0039796,0.028836,-0.00042633,0.008523,0.00027224,0,0,0.052815,-0.023268,0,0.0014157,0,0,0,0.028839,-0.00042886,0.008523,0.53299,0.012311,0.025976,5.5303e-07,0.72,0.32,0
0.037279,0.0042525,0.028964,-6.396e-05,0.0086699,0.00030758,0,0,0.052764,-0.022708,0,0.0015994,0,0,0,0.028967,-6.7219e-05,0.0086699,0.60703,0.012523,0.0258,5.5313e-07,0.76,0.32,0
0.039389,0.0045047,0.02909,0.00023119,0.0087965,0.00027341,0,0,0.052764,-0.02227,0,0.0014217,0,0,0,0.029093,0.0002286,0.0087965,0.54275,0.012706,0.025676,5.5425e-07,0.8,0.32,0
0.0415,0.0047208,0.029223,0.00043323,0.0088968,0.00020437,0,0,0.052847,-0.022005,0,0.0010627,0,0,0,0.029224,0.00043178,0.0088968,0.4067,0.012851,0.025631,5.5748e-07,0.84,0.32,0
0.043617,0.0048922,0.029351,0.00055013,0.0089703,0.00013186,0,0,0.052989,-0.021892,0,0.0006857,0,0,0,0.029351,0.00054953,0.0089703,0.26232,0.012957,0.02565,5.6229e-07,0.88,0.32,0
0.045739,0.0050151,0.029459,0.00060696,0.0090199,7.2696e-05,0,0,0.053143,-0.021874,0,0.00037802,0,0,0,0.029459,0.00060677,0.0090199,0.14436,0.013029,0.025701,5.6732e-07,0.92,0.32,0
0.047868,0.0050886,0.029532,0.00062856,0.0090481,3.077e-05,0,0,0.053257,-0.021891,0,0.00016001,0,0,0,0.029532,0.00062853,0.0090481,0.060997,0.013069,0.025747,5.7106e-07,0.96,0.32,0
0.05,0.0051131,0.029557,0.00063357,0.0090572,0.00011749,0,0,0.0533,-0.021902,0,0.00061092,0,0,0,0.029558,0.00063309,0.0090572,0.23272,0.013083,0.025767,5.7247e-07,1,0.32,0
0,0,0.027791,0.011911,0.011911,0.0029387,0,0,0.04129,3.7947e-19,0,0.015281,0,0,0,0.028318,0.011384,0.011911,10.155,0.017204,0.016677,2.374e-07,0,0.36,0
0.0016516,0.00061126,0.027735,0.011082,0.011645,0.0028558,0,0,0.041835,-0.0014647,0,0.01485,0,0,0,0.028212,0.010606,0.011645,9.4651,0.016821,0.01711,2.5405e-07,0.04,0.36,0
0.0033468,0.0011088,0.027935,0.010053,0.011397,0.002458,0,0,0.043001,-0.0034929,0,0.012782,0,0,0,0.028267,0.0097213,0.011397,7.6859,0.016462,0.017767,2.7945e-07,0.08,0.36,0
0.0050917,0.0014857,0.028097,0.0088358,0.01108,0.0020038,0,0,0.044245,-0.0058346,0,0.01042,0,0,0,0.028303,0.0086296,0.01108,5.8769,0.016004,0.01857,3.097e-07,0.12,0.36,0
0.0068864,0.0017388,0.028169,0.0074766,0.010694,0.0015046,0,0,0.045435,-0.0083642,0,0.007824,0,0,0,0.028278,0.0073678,0.010694,4.1372,0.015446,0.019461,3.4159e-07,0.16,0.36,0
0.0087265,0.0018705,0.028174,0.0060397,0.010264,0.00099984,0,0,0.046565,-0.010983,0,0.0051991,0,0,0,0.028219,0.0059947,0.010264,2.5812,0.014826,0.020427,3.741e-07,0.2,0.36,0
0.010612,0.0018964,0.028088,0.0044772,0.0097694,0.00052951,0,0,0.047627,-0.01376,0,0.0027535,0,0,0,0.028099,0.0044653,0.0097694,1.2841,0.014111,0.021479,4.0622e-07,0.24,0.36,0
0.012537,0.0018504,0.027919,0.0028804,0.00924,0.00021912,0,0,0.048567,-0.016535,0,0.0011394,0,0,0,0.027921,0.0028785,0.00924,0.50135,0.013347,0.022546,4.3443e-07,0.28,0.36,0
0.014497,0.0017829,0.027707,0.0015478,0.0087766,4.8208e-05,0,0,0.04922,-0.018795,0,0.00025068,0,0,0,0.027707,0.0015477,0.0087766,0.10559,0.012677,0.023398,4.5243e-07,0.32,0.36,0
0.016474,0.0017368,0.027506,0.00065802,0.0084491,-4.6492e-05,0,0,0.049547,-0.020257,0,-0.00024176,0,0,0,0.027506,0.00065794,0.0084491,-0.099218,0.012204,0.023924,4.6001e-07,0.36,0.36,0
0.018461,0.001732,0.027334,5.3603e-05,0.0082163,-0.00017273,0,0,0.049706,-0.021223,0,-0.00089818,0,0,0,0.027335,5.2509e-05,0.0082163,-0.36275,0.011868,0.024254,4.6271e-07,0.4,0.36,0
0.020451,0.0017736,0.027238,-0.00035804,0.008064,-0.00028799,0,0,0.049853,-0.021897,0,-0.0014976,0,0,0,0.027241,-0.00036104,0.008064,-0.59785,0.011648,0.024501,4.6534e-07,0.44,0.36,0
0.022449,0.0018577,0.027298,-0.00053234,0.0080297,-0.00043186,0,0,0.050098,-0.022261,0,-0.0022457,0,0,0,0.027305,-0.00053904,0.0080297,-0.88881,0.011598,0.024701,4.7172e-07,0.48,0.36,0
0.024459,0.0019703,0.027503,-0.00067128,0.0080496,-0.00058012,0,0,0.05058,-0.022674,0,-0.0030166,0,0,0,0.027515,-0.00068321,0.0080496,-1.179,0.011627,0.025003,4.8518e-07,0.52,0.36,0
0.026495,0.0021029,0.027804,-0.00096818,0.0080508,-0.00066153,0,0,0.051359,-0.023449,0,-0.00344,0,0,0,0.027819,-0.00098339,0.0080508,-1.3164,0.011629,0.025515,5.066e-07,0.56,0.36,0
0.028567,0.0022673,0.028153,-0.0012637,0.0080669,-0.00055146,0,0,0.052224,-0.024259,0,-0.0028676,0,0,0,0.028164,-0.001274,0.0080669,-1.0736,0.011652,0.026055,5.3056e-07,0.6,0.36,0
0.030673,0.0024806,0.028504,-0.0012873,0.0081651,-0.00030488,0,0,0.052882,-0.024576,0,-0.0015854,0,0,0,0.028507,-0.0012904,0.0081651,-0.58628,0.011794,0.026374,5.5024e-07,0.64,0.36,0
0.032798,0.0027458,0.028799,-0.00098821,0.0083432,-4.4895e-05,0,0,0.053185,-0.024262,0,-0.00023346,0,0,0,0.028799,-0.00098828,0.0083432,-0.086357,0.012051,0.026389,5.6147e-07,0.68,0.36,0
0.034928,0.0030428,0.029042,-0.00050363,0.0085614,0.00010812,0,0,0.053248,-0.023569,0,0.00056225,0,0,0,0.029042,-0.00050403,0.0085614,0.20968,0.012366,0.026216,5.6623e-07,0.72,0.36,0
0.037058,0.0033405,0.029256,-3.8624e-05,0.0087652,0.00013887,0,0,0.053276,-0.02289,0,0.00072214,0,0,0,0.029257,-3.9282e-05,0.0087652,0.27161,0.012661,0.026035,5.693e-07,0.76,0.36,0
0.03919,0.0036109,0.029472,0.00030254,0.0089324,8.7729e-05,0,0,0.053403,-0.022438,0,0.00045619,0,0,0,0.029472,0.00030228,0.0089324,0.17232,0.012902,0.025955,5.7471e-07,0.8,0.36,0
0.04133,0.0038369,0.02969,0.00050221,0.0090577,1.8042e-05,0,0,0.053644,-0.022244,0,9.3817e-05,0,0,0,0.02969,0.00050219,0.0090577,0.035416,0.013083,0.025989,5.8318e-07,0.84,0.36,0
0.043482,0.0040113,0.029896,0.00059684,0.0091479,-3.4347e-05,0,0,0.053946,-0.022233,0,-0.00017861,0,0,0,0.029896,0.0005968,0.0091479,-0.067166,0.013214,0.026097,5.9336e-07,0.88,0.36,0
0.045646,0.0041333,0.030063,0.00062271,0.0092057,-5.1834e-05,0,0,0.054229,-0.022316,0,-0.00026953,0,0,0,0.030063,0.00062262,0.0092057,-0.10088,0.013297,0.026224,6.0283e-07,0.92,0.36,0
0.04782,0.004205,0.030172,0.00062033,0.0092377,-3.5895e-05,0,0,0.054429,-0.022405,0,-0.00018666,0,0,0,0.030172,0.00062029,0.0092377,-0.069595,0.013343,0.026323,6.0951e-07,0.96,0.36,0
0.05,0.0042286,0.03021,0.00061635,0.0092478,0.00011337,0,0,0.054501,-0.022442,0,0.00058954,0,0,0,0.03021,0.00061591,0.0092478,0.2195,0.013358,0.02636,6.1195e-07,1,0.36,0
0,0,0.028611,0.012262,0.012262,0.0026716,0,0,0.042508,-1.0842e-19,0,0.013892,0,0,0,0.029036,0.011836,0.012262,9.0491,0.017712,0.016991,2.5141e-07,0,0.4,0
0.0017003,0.00055569,0.028539,0.011436,0.011992,0.0026275,0,0,0.043021,-0.0014474,0,0.013663,0,0,0,0.028934,0.011041,0.011992,8.5399,0.017322,0.017436,2.6953e-07,0.04,0.4,0
0.0034417,0.0009751,0.028698,0.010431,0.011739,0.002271,0,0,0.044095,-0.0034012,0,0.011809,0,0,0,0.028976,0.010152,0.011739,6.9814,0.016956,0.018083,2.9583e-07,0.08,0.4,0
0.0052279,0.0012618,0.028779,0.0092433,0.011407,0.0019111,0,0,0.045169,-0.005625,0,0.0099376,0,0,0,0.028965,0.0090581,0.011407,5.535,0.016477,0.018842,3.2564e-07,0.12,0.4,0
0.0070552,0.0014164,0.028743,0.0079135,0.010997,0.0015493,0,0,0.046139,-0.0080167,0,0.0080563,0,0,0,0.028857,0.0077989,0.010997,4.2307,0.015884,0.019655,3.5546e-07,0.16,0.4,0
0.0089191,0.0014472,0.028454,0.0063676,0.010446,0.0011814,0,0,0.046819,-0.010605,0,0.0061435,0,0,0,0.028517,0.0063045,0.010446,3.0533,0.015089,0.020458,3.7973e-07,0.2,0.4,0
0.010801,0.0013618,0.028158,0.0048975,0.0099168,0.0008902,0,0,0.047428,-0.01305,0,0.004629,0,0,0,0.028192,0.0048634,0.0099168,2.1884,0.014324,0.021258,4.0095e-07,0.24,0.4,0
0.012713,0.0012009,0.027602,0.0030372,0.0091919,0.00059366,0,0,0.047868,-0.016002,0,0.003087,0,0,0,0.027617,0.0030229,0.0091919,1.3836,0.013277,0.022163,4.1651e-07,0.28,0.4,0
0.01463,0.0010422,0.026968,0.0015337,0.0085505,0.000574,0,0,0.047885,-0.018244,0,0.0029848,0,0,0,0.026981,0.0015208,0.0085505,1.2922,0.012351,0.022774,4.1749e-07,0.32,0.4,0
0.016544,0.00094281,0.026585,0.0010407,0.0082876,0.00034194,0,0,0.047572,-0.018842,0,0.0017781,0,0,0,0.026589,0.0010361,0.0082876,0.7668,0.011971,0.022809,4.0824e-07,0.36,0.4,0
0.018436,0.00090213,0.026272,0.00047468,0.008024,-3.9722e-05,0,0,0.047445,-0.019628,0,-0.00020656,0,0,0,0.026272,0.00047462,0.008024,-0.088222,0.01159,0.022973,4.0353e-07,0.4,0.4,0
0.02034,0.00091511,0.026126,-0.00023963,0.007766,-0.00039894,0,0,0.047737,-0.020815,0,-0.0020745,0,0,0,0.026132,-0.00024567,0.007766,-0.86667,0.011218,0.023423,4.0917e-07,0.44,0.4,0
0.022255,0.00098512,0.026375,-0.00029953,0.0078227,-0.0006148,0,0,0.048236,-0.021118,0,-0.0031969,0,0,0,0.026389,-0.0003137,0.0078227,-1.3196,0.011299,0.023706,4.2244e-07,0.48,0.4,0
0.024199,0.0010797,0.026829,-0.00031011,0.0079558,-0.0010012,0,0,0.049072,-0.021491,0,-0.0052064,0,0,0,0.026866,-0.00034699,0.0079558,-2.1099,0.011492,0.024157,4.4624e-07,0.52,0.4,0
0.026181,0.0011717,0.027269,-0.0010055,0.0078792,-0.0011703,0,0,0.050415,-0.0231,0,-0.0060858,0,0,0,0.027318,-0.0010538,0.0078792,-2.3662,0.011381,0.025126,4.8117e-07,0.56,0.4,0
0.028232,0.0012915,0.027889,-0.0015244,0.0079093,-0.0010582,0,0,0.051947,-0.024528,0,-0.0055028,0,0,0,0.027927,-0.0015624,0.0079093,-2.0578,0.011425,0.026077,5.2236e-07,0.6,0.4,0
0.030336,0.0014864,0.028416,-0.0016647,0.0080254,-0.00071153,0,0,0.053015,-0.025194,0,-0.0037,0,0,0,0.028433,-0.0016815,0.0080254,-1.3543,0.011592,0.026623,5.5283e-07,0.64,0.4,0
0.032473,0.0017651,0.028863,-0.0012694,0.0082781,-0.00036675,0,0,0.05352,-0.024823,0,-0.0019071,0,0,0,0.028867,-0.0012738,0.0082781,-0.69723,0.011957,0.02668,5.7075e-07,0.68,0.4,0
0.034618,0.0020941,0.029258,-0.00057383,0.0086054,-0.00016517,0,0,0.053698,-0.023866,0,-0.00085887,0,0,0,0.029259,-0.00057474,0.0086054,-0.31721,0.01243,0.026466,5.8038e-07,0.72,0.4,0
0.036769,0.0024214,0.029614,1.2462e-05,0.0088879,-0.00015828,0,0,0.053887,-0.023076,0,-0.00082305,0,0,0,0.029615,1.1616e-05,0.0088879,-0.30635,0.012838,0.026313,5.8937e-07,0.76,0.4,0
0.038929,0.0027096,0.029951,0.00035919,0.0090931,-0.00020843,0,0,0.054231,-0.022708,0,-0.0010838,0,0,0,0.029953,0.00035772,0.0090931,-0.40353,0.013135,0.026337,6.0213e-07,0.8,0.4,0
0.041107,0.0029412,0.030297,0.000551,0.0092545,-0.00026243,0,0,0.054711,-0.022629,0,-0.0013647,0,0,0,0.0303,0.00054868,0.0092545,-0.50543,0.013368,0.026493,6.1899e-07,0.84,0.4,0
0.043306,0.0031136,0.030591,0.00059783,0.0093567,-0.00027263,0,0,0.05521,-0.022773,0,-0.0014177,0,0,0,0.030594,0.00059535,0.0093567,-0.52075,0.013515,0.026718,6.3621e-07,0.88,0.4,0
0.045524,0.0032298,0.030822,0.00057355,0.0094188,-0.00022583,0,0,0.05565,-0.022998,0,-0.0011743,0,0,0,0.030824,0.00057187,0.0094188,-0.42772,0.013605,0.026941,6.5138e-07,0.92,0.4,0
0.047758,0.0032962,0.03097,0.00053405,0.0094512,-0.00012744,0,0,0.055949,-0.023185,0,-0.00066267,0,0,0,0.030971,0.00053351,0.0094512,-0.23989,0.013652,0.027102,6.6169e-07,0.96,0.4,0
0.05,0.0033177,0.031021,0.00051697,0.0094614,0.00010335,0,0,0.056055,-0.023255,0,0.00053742,0,0,0,0.031021,0.00051662,0.0094614,0.19412,0.013666,0.02716,6.6538e-07,1,0.4,0
0,0,0.029776,0.012761,0.012761,0.002382,0,0,0.044239,3.2526e-19,0,0.012386,0,0,0,0.030103,0.012434,0.012761,7.8209,0.018433,0.017508,2.7531e-07,0,0.44,0
0.0017696,0.00049546,0.029665,0.01176,0.012427,0.0023927,0,0,0.044817,-0.0017361,0,0.012442,0,0,0,0.029979,0.011445,0.012427,7.4816,0.01795,0.018063,2.9965e-07,0.04,0.44,0
0.0035854,0.00083671,0.029831,0.010698,0.012159,0.0021113,0,0,0.045947,-0.0037971,0,0.010979,0,0,0,0.030061,0.010468,0.012159,6.2229,0.017563,0.018805,3.3223e-07,0.08,0.44,0
0.0054453,0.0010357,0.029917,0.0095471,0.011839,0.0018866,0,0,0.047002,-0.0059596,0,0.0098103,0,0,0,0.03009,0.0093738,0.011839,5.2471,0.017101,0.0196,3.6619e-07,0.12,0.44,0
0.0073456,0.0010975,0.029781,0.0081548,0.011381,0.0016684,0,0,0.047841,-0.0083875,0,0.0086756,0,0,0,0.029909,0.0080268,0.011381,4.3856,0.016439,0.020413,3.9739e-07,0.16,0.44,0
0.0092726,0.0010221,0.029503,0.006618,0.010836,0.0016011,0,0,0.048532,-0.010967,0,0.0083257,0,0,0,0.029614,0.0065066,0.010836,3.9828,0.015652,0.021276,4.2639e-07,0.2,0.44,0
0.011228,0.00085235,0.028204,0.0044201,0.0097873,0.0015628,0,0,0.047884,-0.013955,0,0.0081266,0,0,0,0.028306,0.0043178,0.0097873,3.7433,0.014137,0.021775,4.1964e-07,0.24,0.44,0
0.013103,0.0005702,0.027127,0.00295,0.0090232,0.0021839,0,0,0.047071,-0.01579,0,0.011356,0,0,0,0.027323,0.0027543,0.0090232,5.1201,0.013034,0.022111,4.0843e-07,0.28,0.44,0
0.014994,0.00032338,0.026079,0.002305,0.0085153,0.0015679,0,0,0.045666,-0.016147,0,0.0081533,0,0,0,0.026182,0.0022021,0.0085153,3.7571,0.0123,0.021529,3.6785e-07,0.32,0.44,0
0.016757,0.00022948,0.024622,0.0017141,0.0079009,0.00095838,0,0,0.043476,-0.016086,0,0.0049836,0,0,0,0.024662,0.0016741,0.0079009,2.3914,0.011412,0.020593,3.1416e-07,0.36,0.44,0
0.018472,0.00016173,0.024166,0.0011748,0.0076022,8.4125e-05,0,0,0.043065,-0.016711,0,0.00043745,0,0,0,0.024166,0.0011745,0.0076022,0.20964,0.010981,0.020546,3.029e-07,0.4,0.44,0
0.020202,0.00010847,0.024703,0.0006404,0.0076029,-0.00067953,0,0,0.044459,-0.018103,0,-0.0035335,0,0,0,0.024722,0.00062123,0.0076029,-1.6163,0.010982,0.021478,3.3352e-07,0.44,0.44,0
0.022029,0.00016828,0.025087,-1.5693e-05,0.0075214,-0.0015926,0,0,0.045671,-0.019596,0,-0.0082817,0,0,0,0.025188,-0.00011634,0.0075214,-3.6158,0.010864,0.02248,3.6454e-07,0.48,0.44,0
0.023856,0.00025098,0.025715,-0.00038295,0.0075996,-0.0015502,0,0,0.0471,-0.020755,0,-0.0080608,0,0,0,0.025807,-0.00047471,0.0075996,-3.3874,0.010977,0.023318,3.9772e-07,0.52,0.44,0
0.025797,0.00025491,0.026765,-0.00096262,0.0077406,-0.0017369,0,0,0.049462,-0.022628,0,-0.0090316,0,0,0,0.026873,-0.001071,0.0077406,-3.5705,0.011181,0.024744,4.586e-07,0.56,0.44,0
0.027813,0.00030506,0.027547,-0.0015422,0.0078013,-0.0016872,0,0,0.051338,-0.024293,0,-0.0087733,0,0,0,0.027644,-0.0016398,0.0078013,-3.3084,0.011269,0.025888,5.0817e-07,0.6,0.44,0
0.029904,0.00046507,0.028074,-0.0022037,0.0077612,-0.0014027,0,0,0.052814,-0.025909,0,-0.0072941,0,0,0,0.028139,-0.0022685,0.0077612,-2.6468,0.011211,0.026837,5.4574e-07,0.64,0.44,0
0.032038,0.0007599,0.028826,-0.0016395,0.008156,-0.00087902,0,0,0.053743,-0.025468,0,-0.0045709,0,0,0,0.028852,-0.0016648,0.008156,-1.6513,0.011781,0.026982,5.7689e-07,0.68,0.44,0
0.034203,0.0011336,0.029551,-0.00057818,0.0086918,-0.00071767,0,0,0.054234,-0.024102,0,-0.0037319,0,0,0,0.029568,-0.00059527,0.0086918,-1.3637,0.012555,0.026757,5.9924e-07,0.72,0.44,0
0.036376,0.0014944,0.030057,-6.6107e-05,0.0089973,-0.00062481,0,0,0.054755,-0.023565,0,-0.003249,0,0,0,0.03007,-7.9061e-05,0.0089973,-1.1877,0.012996,0.02679,6.1897e-07,0.76,0.44,0
0.038583,0.0017942,0.030671,0.0004018,0.0093218,-0.00063684,0,0,0.055508,-0.023192,0,-0.0033115,0,0,0,0.030684,0.0003884,0.0093218,-1.2047,0.013465,0.026963,6.4682e-07,0.8,0.44,0
0.040817,0.0020266,0.031118,0.0005542,0.0095016,-0.0006332,0,0,0.056202,-0.023263,0,-0.0032927,0,0,0,0.031131,0.00054109,0.0095016,-1.1864,0.013725,0.027238,6.719e-07,0.84,0.44,0
0.04308,0.0021894,0.031494,0.00053529,0.0096089,-0.00058019,0,0,0.056902,-0.023591,0,-0.003017,0,0,0,0.031505,0.00052442,0.0096089,-1.0733,0.013879,0.027584,6.9702e-07,0.88,0.44,0
0.045369,0.0022935,0.031776,0.00043568,0.0096635,-0.00044397,0,0,0.057493,-0.023992,0,-0.0023087,0,0,0,0.031782,0.00042939,0.0096635,-0.81144,0.013958,0.027906,7.181e-07,0.92,0.44,0
0.047679,0.0023502,0.031955,0.00034887,0.0096913,-0.00024008,0,0,0.057887,-0.02429,0,-0.0012484,0,0,0,0.031957,0.00034704,0.0096913,-0.43517,0.013999,0.028127,7.3216e-07,0.96,0.44,0
0.05,0.0023682,0.032017,0.00031604,0.0096998,8.6151e-05,0,0,0.058023,-0.024398,0,0.00044799,0,0,0,0.032017,0.00031581,0.0096998,0.15571,0.014011,0.028205,7.3708e-07,1,0.44,0
0,0,0.03128,0.013406,0.013406,0.0020038,0,0,0.046474,-6.5052e-19,0,0.01042,0,0,0,0.031502,0.013184,0.013406,6.3187,0.019364,0.018208,3.099e-07,0,0.48,0
0.001859,0.0004168,0.031114,0.012026,0.012942,0.0020769,0,0,0.047247,-0.0023819,0,0.0108,0,0,0,0.031337,0.011803,0.012942,6.1385,0.018694,0.018991,3.475e-07,0.04,0.48,0
0.0037798,0.00067133,0.031375,0.01082,0.012658,0.0019141,0,0,0.048663,-0.0047804,0,0.0099531,0,0,0,0.031552,0.010643,0.012658,5.2748,0.018284,0.019977,3.9546e-07,0.08,0.48,0
0.005752,0.00078507,0.031493,0.0096528,0.012344,0.001845,0,0,0.049788,-0.0069963,0,0.0095943,0,0,0,0.031648,0.0094981,0.012344,4.7951,0.01783,0.020873,4.3793e-07,0.12,0.48,0
0.0077628,0.00074544,0.031637,0.0084634,0.01203,0.0018097,0,0,0.050978,-0.0092734,0,0.0094102,0,0,0,0.031777,0.0083229,0.01203,4.4385,0.017377,0.021838,4.8335e-07,0.16,0.48,0
0.0098302,0.0005698,0.031125,0.0062808,0.011222,0.0018034,0,0,0.051749,-0.012847,0,0.0093778,0,0,0,0.031255,0.0061506,0.011222,4.1302,0.016209,0.022992,5.2336e-07,0.2,0.48,0
0.011903,0.00024546,0.031686,0.0046936,0.010914,0.0026672,0,0,0.054007,-0.016173,0,0.01387,0,0,0,0.031947,0.0044325,0.010914,5.5896,0.015764,0.024914,6.1673e-07,0.24,0.48,0
0.014151,-6.2307e-05,0.035303,0.0033,0.011581,0.0028839,0,0,0.043273,-0.014562,0,0.011211,0,0,0,0.035572,0.0030307,0.011581,5.3426,0.016728,0.029225,1.0186e-06,0.28,0.48,0
0.015623,-0.00024955,0.031579,0.0026809,0.010278,0.0021063,0,0,0.036921,-0.013457,0,0.008529,0,0,0,0.031762,0.0024974,0.010278,4.7485,0.014846,0.026257,8.7177e-07,0.32,0.48,0
0.017105,-0.00034404,0.031513,0.0021651,0.010103,0.0013375,0,0,0.03711,-0.013904,0,0.0050729,0,0,0,0.031578,0.0021003,0.010103,2.8317,0.014594,0.026403,8.7884e-07,0.36,0.48,0
0.018592,-0.00043476,0.03102,0.0015625,0.0097748,0.00047179,0,0,0.036825,-0.014404,0,0.0013862,0,0,0,0.031029,0.0015535,0.0097748,0.77902,0.014119,0.026346,8.5395e-07,0.4,0.48,0
0.02005,-0.00053309,0.029776,0.00077781,0.0091661,-0.00023316,0,0,0.035723,-0.014915,0,-0.002014,0,0,0,0.02981,0.00074345,0.0091661,-1.0886,0.01324,0.025907,7.7874e-07,0.44,0.48,0
0.02145,-0.00058259,0.031524,-0.00032019,0.0093613,-0.00046501,0,0,0.040133,-0.017066,0,-0.0034422,0,0,0,0.031593,-0.00038847,0.0093613,-1.4384,0.013522,0.028395,8.178e-07,0.48,0.48,0
0.023467,-0.00058071,0.027371,0.00049787,0.0083607,-0.0012691,0,0,0.049427,-0.020443,0,-0.0065996,0,0,0,0.027431,0.00043807,0.0083607,-2.6979,0.012077,0.024032,4.6042e-07,0.52,0.48,0
0.025404,-0.00063852,0.026264,-0.00045817,0.0077418,-0.0017616,0,0,0.048158,-0.02132,0,-0.0091605,0,0,0,0.02638,-0.00057381,0.0077418,-3.7555,0.011183,0.023906,4.2624e-07,0.56,0.48,0
0.02732,-0.00065197,0.02626,-0.0011304,0.0075388,-0.0022054,0,0,0.048675,-0.02254,0,-0.011468,0,0,0,0.026436,-0.0013068,0.0075388,-4.574,0.010889,0.024546,4.4051e-07,0.6,0.48,0
0.029298,-0.00058633,0.027508,-0.0018249,0.0077051,-0.0024172,0,0,0.051489,-0.024778,0,-0.012569,0,0,0,0.027706,-0.0020227,0.0077051,-4.6793,0.01113,0.026253,5.1767e-07,0.64,0.48,0
0.031439,-0.00027237,0.028475,-0.0022587,0.0078649,-0.0026063,0,0,0.053587,-0.026322,0,-0.013553,0,0,0,0.028695,-0.0024782,0.0078649,-4.813,0.011361,0.027501,5.8139e-07,0.68,0.48,0
0.033585,0.00016589,0.029672,-0.0014287,0.008473,-0.001537,0,0,0.055118,-0.025745,0,-0.0079921,0,0,0,0.029748,-0.0015045,0.008473,-2.8223,0.012239,0.027649,6.2831e-07,0.72,0.48,0
0.035848,0.00053617,0.031177,-0.00012309,0.0093161,-0.0012889,0,0,0.056838,-0.024542,0,-0.0067023,0,0,0,0.03123,-0.00017608,0.0093161,-2.3541,0.013457,0.027898,6.9559e-07,0.76,0.48,0
0.038132,0.00085428,0.031754,0.00036887,0.0096369,-0.0011155,0,0,0.057505,-0.024097,0,-0.0058004,0,0,0,0.031794,0.00032928,0.0096369,-2.0329,0.01392,0.027996,7.214e-07,0.8,0.48,0
0.040449,0.0010802,0.032272,0.00053075,0.0098407,-0.0010652,0,0,0.05832,-0.024206,0,-0.0055392,0,0,0,0.032307,0.00049504,0.0098407,-1.92,0.014214,0.02832,7.5274e-07,0.84,0.48,0
0.042798,0.0012263,0.032648,0.00037937,0.0099083,-0.00092742,0,0,0.059124,-0.024775,0,-0.0048226,0,0,0,0.032675,0.00035273,0.0099083,-1.6449,0.014312,0.028761,7.8266e-07,0.88,0.48,0
0.045179,0.0013104,0.032951,0.00019006,0.0099423,-0.00068264,0,0,0.059822,-0.025356,0,-0.0035497,0,0,0,0.032965,0.00017584,0.0099423,-1.1932,0.014361,0.02916,8.0855e-07,0.92,0.48,0
0.047583,0.001353,0.033138,5.4708e-05,0.0099577,-0.00035931,0,0,0.060268,-0.025748,0,-0.0018684,0,0,0,0.033141,5.0806e-05,0.0099577,-0.62219,0.014383,0.029416,8.2498e-07,0.96,0.48,0
0.05,0.0013659,0.033199,6.34e-06,0.0099617,6.2014e-05,0,0,0.060418,-0.025884,0,0.00032247,0,0,0,0.033199,6.2241e-06,0.0099617,0.10705,0.014389,0.029503,8.3052e-07,1,0.48,0
0,0,0.033018,0.014151,0.014151,0.0014659,0,0,0.049056,0,0,0.0076227,0,0,0,0.033131,0.014037,0.014151,4.4162,0.02044,0.019038,3.5433e-07,0,0.52,0
0.0019622,0.00030491,0.032802,0.012222,0.013507,0.0015889,0,0,0.050167,-0.0033413,0,0.0082624,0,0,0,0.032924,0.0121,0.013507,4.389,0.019511,0.020157,4.1374e-07,0.04,0.52,0
0.0040133,0.00045428,0.033318,0.01081,0.013238,0.0015489,0,0,0.052207,-0.0063136,0,0.0080542,0,0,0,0.033424,0.010704,0.013238,3.9182,0.019122,0.021565,4.9116e-07,0.08,0.52,0
0.0061388,0.00047595,0.033628,0.0095505,0.012954,0.0016808,0,0,0.053754,-0.008848,0,0.0087401,0,0,0,0.033745,0.0094337,0.012954,3.974,0.018711,0.022756,5.5674e-07,0.12,0.52,0
0.0083137,0.00035558,0.033707,0.0083922,0.01263,0.0017136,0,0,0.0548,-0.011017,0,0.0089109,0,0,0,0.033822,0.0082767,0.01263,3.8551,0.018243,0.023671,6.0429e-07,0.16,0.52,0
0.010523,-5.6601e-06,0.034869,0.0067431,0.012484,0.0020935,0,0,0.058202,-0.014925,0,0.010886,0,0,0,0.035024,0.0065882,0.012484,4.2336,0.018032,0.025995,7.4806e-07,0.2,0.52,0
0.01297,-0.00044146,0.0401,0.0049384,0.013511,0.0020528,0,0,0.048242,-0.01519,0,0.0083544,0,0,0,0.040235,0.0048034,0.013511,3.6001,0.019517,0.031982,1.4304e-06,0.24,0.52,0
0.014641,-0.00061977,0.032377,0.0027724,0.010545,0.0010212,0,0,0.038826,-0.013588,0,0.0046035,0,0,0,0.032433,0.0027163,0.010545,2.4029,0.015231,0.026679,8.4258e-07,0.28,0.52,0
0.015958,-0.00075317,0.038307,0.0026269,0.01228,0.0012402,0,0,0.033835,-0.012549,0,0.0032246,0,0,0,0.038351,0.0025838,0.01228,1.9883,0.017738,0.032038,1.1821e-06,0.32,0.52,0
0.017348,-0.00088287,0.039703,0.0024495,0.012646,0.0010945,0,0,0.035174,-0.013255,0,0.0028456,0,0,0,0.039735,0.0024174,0.012646,1.6814,0.018266,0.033399,1.3259e-06,0.36,0.52,0
0.018772,-0.00099059,0.039851,0.0019331,0.012535,0.0010292,0,0,0.035511,-0.013783,0,0.0026759,0,0,0,0.039879,0.0019052,0.012535,1.5536,0.018107,0.033932,1.3626e-06,0.4,0.52,0
0.020189,-0.0010847,0.039093,0.0011716,0.012079,0.00091657,0,0,0.035118,-0.01418,0,0.0023831,0,0,0,0.039115,0.0011494,0.012079,1.3838,0.017448,0.033851,1.3145e-06,0.44,0.52,0
0.021581,-0.0012311,0.033938,0.0012933,0.010569,0.00086169,0,0,0.041643,-0.016112,0,0.0021032,0,0,0,0.033978,0.001253,0.010569,1.1242,0.015267,0.029207,1.0238e-06,0.48,0.52,0
0.023384,-0.0013845,0.037093,0.0011225,0.011465,-0.00016539,0,0,0.044422,-0.018468,0,-0.0016393,0,0,0,0.037114,0.0011012,0.011465,-0.70761,0.01656,0.032117,1.4962e-06,0.52,0.52,0
0.025135,-0.0014507,0.035688,0.00011459,0.010741,-0.0010469,0,0,0.043242,-0.01889,0,-0.004758,0,0,0,0.035741,6.1634e-05,0.010741,-2.1494,0.015515,0.031723,1.3773e-06,0.56,0.52,0
0.026843,-0.0014981,0.03455,-0.00071678,0.01015,-0.0019866,0,0,0.042293,-0.019415,0,-0.0083537,0,0,0,0.034697,-0.00086385,0.01015,-3.7844,0.014661,0.031539,1.2912e-06,0.6,0.52,0
0.028518,-0.0015172,0.033986,-0.0014286,0.0097672,-0.0026055,0,0,0.041979,-0.020372,0,-0.01117,0,0,0,0.034246,-0.001689,0.0097672,-4.9139,0.014108,0.031815,1.264e-06,0.64,0.52,0
0.030201,-0.0013458,0.037347,-0.0030642,0.010285,-0.0030643,0,0,0.049328,-0.023666,0,-0.012026,0,0,0,0.037591,-0.0033088,0.010285,-4.5421,0.014856,0.036084,1.4388e-06,0.68,0.52,0
0.032755,-0.000926,0.033353,-0.0015133,0.0095518,-0.002673,0,0,0.061882,-0.028769,0,-0.0139,0,0,0,0.033556,-0.001717,0.0095518,-4.3586,0.013797,0.031204,9.0231e-07,0.72,0.52,0
0.035152,-0.00046892,0.032861,-0.00057296,0.0096863,-0.0016629,0,0,0.060254,-0.026674,0,-0.008647,0,0,0,0.032943,-0.00065547,0.0096863,-2.8404,0.013991,0.029805,8.2858e-07,0.76,0.52,0
0.037575,-0.00013354,0.033541,0.00053698,0.010223,-0.0015645,0,0,0.060626,-0.025185,0,-0.0081355,0,0,0,0.033615,0.00046298,0.010223,-2.708,0.014767,0.029508,8.4937e-07,0.8,0.52,0
0.040002,9.009e-05,0.033751,0.00041658,0.01025,-0.0014724,0,0,0.061102,-0.025568,0,-0.0076562,0,0,0,0.033816,0.00035168,0.01025,-2.5241,0.014806,0.029776,8.6795e-07,0.84,0.52,0
0.042464,0.00020743,0.034088,0.00010583,0.010258,-0.001251,0,0,0.061957,-0.026396,0,-0.0065054,0,0,0,0.034134,5.9837e-05,0.010258,-2.1055,0.014817,0.030291,9.0112e-07,0.88,0.52,0
0.044958,0.00026507,0.034344,-0.00015983,0.010255,-0.00088745,0,0,0.062632,-0.02708,0,-0.0046147,0,0,0,0.034367,-0.00018264,0.010255,-1.4724,0.014813,0.030692,9.267e-07,0.92,0.52,0
0.047474,0.00029044,0.034482,-0.00033632,0.010244,-0.00045677,0,0,0.06302,-0.027509,0,-0.0023752,0,0,0,0.034488,-0.00034231,0.010244,-0.75147,0.014797,0.030928,9.4108e-07,0.96,0.52,0
0.05,0.00029746,0.034526,-0.00039703,0.010239,3.3777e-05,0,0,0.063147,-0.027653,0,0.00017564,0,0,0,0.034526,-0.00039707,0.010239,0.055415,0.014789,0.031005,9.4569e-07,1,0.52,0
0,0,0.034759,0.014897,0.014897,0.00071873,0,0,0.051642,-1.301e-18,0,0.0037374,0,0,0,0.034785,0.014871,0.014897,2.0697,0.021517,0.019901,4.0482e-07,0,0.56,0
0.0020657,0.0001495,0.034503,0.012349,0.014056,0.00085481,0,0,0.053163,-0.0044372,0,0.004445,0,0,0,0.034536,0.012316,0.014056,2.2064,0.020303,0.021403,4.9237e-07,0.04,0.56,0
0.0042531,0.00016625,0.035395,0.010726,0.013836,0.00088111,0,0,0.056053,-0.0080876,0,0.0045818,0,0,0,0.035426,0.010694,0.013836,2.0429,0.019985,0.023321,6.1171e-07,0.08,0.56,0
0.0065499,7.7228e-05,0.036387,0.0095142,0.01377,0.001062,0,0,0.058803,-0.011066,0,0.0055224,0,0,0,0.036429,0.0094723,0.01377,2.2596,0.01989,0.025085,7.3114e-07,0.12,0.56,0
0.0089573,-0.00013595,0.037732,0.0087413,0.013942,0.0010109,0,0,0.061853,-0.013522,0,0.0052567,0,0,0,0.037767,0.0087061,0.013942,1.9947,0.020138,0.026829,8.6585e-07,0.16,0.56,0
0.011498,-0.00062424,0.043962,0.0067932,0.015226,0.0018597,0,0,0.051767,-0.014739,0,0.0072654,0,0,0,0.044061,0.0066941,0.015226,3.0436,0.021994,0.033919,1.8315e-06,0.2,0.56,0
0.013334,-0.0010094,0.035342,0.0041776,0.011856,-0.00016458,0,0,0.042005,-0.013532,0,-0.00056091,0,0,0,0.035343,0.0041767,0.011856,-0.29252,0.017125,0.028126,1.0221e-06,0.24,0.56,0
0.014703,-0.0011354,0.039936,0.0031065,0.012913,-5.8612e-06,0,0,0.035131,-0.012748,0,-1.5239e-05,0,0,0,0.039936,0.0031065,0.012913,-0.0091183,0.018652,0.033037,1.3166e-06,0.28,0.56,0
0.016144,-0.0012535,0.040734,0.0031752,0.013173,0.00046869,0,0,0.03583,-0.012997,0,0.0012186,0,0,0,0.04074,0.0031694,0.013173,0.71482,0.019028,0.033702,1.3978e-06,0.32,0.56,0
0.01757,-0.0014044,0.040523,0.0027709,0.012988,0.00070304,0,0,0.035796,-0.013283,0,0.0018279,0,0,0,0.040536,0.0027578,0.012988,1.0665,0.018761,0.033844,1.3948e-06,0.36,0.56,0
0.019008,-0.0015374,0.04098,0.0022835,0.012979,0.00099186,0,0,0.036401,-0.013904,0,0.0025788,0,0,0,0.041005,0.0022581,0.012979,1.4673,0.018748,0.034654,1.4679e-06,0.4,0.56,0
0.020482,-0.0016675,0.042166,0.0017157,0.013164,0.0010034,0,0,0.037701,-0.014883,0,0.002609,0,0,0,0.04219,0.0016908,0.013164,1.4202,0.019015,0.036155,1.6288e-06,0.44,0.56,0
0.022024,-0.0018675,0.042804,0.0013511,0.013246,0.0012031,0,0,0.038424,-0.015464,0,0.003128,0,0,0,0.042838,0.0013162,0.013246,1.661,0.019134,0.037028,1.7241e-06,0.48,0.56,0
0.023556,-0.0020582,0.043268,0.0011805,0.013334,0.0002752,0,0,0.038913,-0.0158,0,0.00071553,0,0,0,0.043269,0.0011787,0.013334,0.37463,0.019261,0.03752,1.7839e-06,0.52,0.56,0
0.025137,-0.0021497,0.043632,0.00044954,0.013224,-0.00027801,0,0,0.03953,-0.016607,0,-0.00072283,0,0,0,0.043634,0.00044775,0.013224,-0.36886,0.019102,0.038425,1.8649e-06,0.56,0.56,0
0.026718,-0.0022052,0.042614,-0.00040839,0.012662,-0.00083177,0,0,0.038938,-0.016991,0,-0.0021626,0,0,0,0.04263,-0.00042447,0.012662,-1.1072,0.018289,0.03823,1.7773e-06,0.6,0.56,0
0.028252,-0.0022161,0.040493,-0.0016474,0.011654,-0.0013575,0,0,0.037491,-0.017291,0,-0.0035296,0,0,0,0.040536,-0.0016911,0.011654,-1.8432,0.016833,0.037386,1.5768e-06,0.64,0.56,0
0.029717,-0.0022291,0.033898,-0.0023939,0.0094512,-0.0012835,0,0,0.043523,-0.020919,0,-0.0057778,0,0,0,0.033969,-0.0024651,0.0094512,-2.4409,0.013652,0.032176,1.1413e-06,0.68,0.56,0
0.031596,-0.0021356,0.041771,-0.0023635,0.011822,-0.001992,0,0,0.054381,-0.025396,0,-0.0081378,0,0,0,0.041873,-0.0024654,0.011822,-2.7891,0.017077,0.0392,1.9789e-06,0.72,0.56,0
0.034364,-0.0015978,0.036476,-0.00024218,0.01087,-0.0019581,0,0,0.066575,-0.028892,0,-0.010182,0,0,0,0.03658,-0.0003463,0.01087,-3.044,0.015701,0.03279,1.1223e-06,0.76,0.56,0
0.036922,-0.0011605,0.035502,0.00060731,0.010833,-0.0017457,0,0,0.064139,-0.026586,0,-0.0090779,0,0,0,0.035589,0.00052019,0.010833,-2.857,0.015647,0.031217,1.007e-06,0.8,0.56,0
0.039495,-0.00096522,0.035648,0.00016533,0.010744,-0.001735,0,0,0.064751,-0.027505,0,-0.0090223,0,0,0,0.035733,8.0692e-05,0.010744,-2.7928,0.015519,0.031696,1.0332e-06,0.84,0.56,0
0.042102,-0.0008854,0.035828,-0.00023345,0.010679,-0.0014161,0,0,0.06539,-0.028371,0,-0.0073638,0,0,0,0.035884,-0.00028897,0.010679,-2.2454,0.015425,0.032125,1.0579e-06,0.88,0.56,0
0.044726,-0.00085592,0.035872,-0.00057335,0.01059,-0.00097617,0,0,0.065735,-0.029024,0,-0.0050761,0,0,0,0.035898,-0.00059947,0.01059,-1.5332,0.015296,0.032387,1.0687e-06,0.92,0.56,0
0.047361,-0.00084767,0.035884,-0.00078202,0.010531,-0.00049519,0,0,0.06592,-0.029413,0,-0.002575,0,0,0,0.035891,-0.00078871,0.010531,-0.77361,0.015211,0.032532,1.0738e-06,0.96,0.56,0
0.05,-0.00084632,0.035887,-0.00085173,0.010511,6.471e-06,0,0,0.065978,-0.029542,0,3.3649e-05,0,0,0,0.035887,-0.00085173,0.010511,0.010092,0.015182,0.032579,1.0752e-06,1,0.56,0
0,0,0.036204,0.015516,0.015516,-0.00024071,0,0,0.053789,1.7347e-18,0,-0.0012517,0,0,0,0.036207,0.015513,0.015516,-0.66654,0.022412,0.020692,4.5505e-07,0,0.6,0
0.0021516,-5.0069e-05,0.035893,0.012401,0.014488,-0.00012632,0,0,0.055652,-0.0054273,0,-0.00065685,0,0,0,0.035893,0.0124,0.014488,-0.30807,0.020927,0.022522,5.6977e-07,0.04,0.6,0
0.0044522,-0.00019273,0.037023,0.010568,0.014277,-8.2994e-05,0,0,0.05914,-0.0096453,0,-0.00043157,0,0,0,0.037024,0.010567,0.014277,-0.17974,0.020623,0.02481,7.2559e-07,0.08,0.6,0
0.0068828,-0.00040932,0.038238,0.0093585,0.014279,-1.7088e-06,0,0,0.062294,-0.012793,0,-8.886e-06,0,0,0,0.038238,0.0093585,0.014279,-0.0033903,0.020625,0.026761,8.7317e-07,0.12,0.6,0
0.0094357,-0.00072614,0.039427,0.0087767,0.014461,-0.00018472,0,0,0.064912,-0.01478,0,-0.00096053,0,0,0,0.039429,0.0087755,0.014461,-0.34527,0.020889,0.028243,1.0008e-06,0.16,0.6,0
0.012076,-0.0011993,0.039239,0.0056815,0.013476,0.00019421,0,0,0.049992,-0.01351,0,-5.6293e-05,0,0,0,0.039251,0.0056693,0.013476,0.23839,0.019465,0.030493,1.1154e-06,0.2,0.6,0
0.013435,-0.0014973,0.040391,0.004248,0.013392,-0.00049728,0,0,0.035099,-0.011887,0,-0.0012929,0,0,0,0.040398,0.0042412,0.013392,-0.7881,0.019344,0.032561,1.3122e-06,0.24,0.6,0
0.014884,-0.0016396,0.041224,0.0035808,0.013441,0.00038501,0,0,0.036117,-0.012819,0,0.001001,0,0,0,0.041228,0.0035769,0.013441,0.58594,0.019415,0.033815,1.431e-06,0.28,0.6,0
0.016324,-0.0017929,0.040915,0.0027086,0.013087,0.00035723,0,0,0.036176,-0.013492,0,0.00092879,0,0,0,0.040918,0.0027053,0.013087,0.53565,0.018904,0.034224,1.4381e-06,0.32,0.6,0
0.017778,-0.0019455,0.041159,0.0025506,0.013113,0.00051142,0,0,0.03646,-0.013731,0,0.0013297,0,0,0,0.041166,0.0025438,0.013113,0.75878,0.018941,0.034571,1.4726e-06,0.36,0.6,0
0.019241,-0.0021029,0.041431,0.0021331,0.013069,0.00057121,0,0,0.03687,-0.014217,0,0.0014852,0,0,0,0.041439,0.0021249,0.013069,0.8326,0.018878,0.035144,1.5222e-06,0.4,0.6,0
0.020727,-0.0022754,0.041578,0.0014716,0.012915,0.00040478,0,0,0.037262,-0.014876,0,0.0010524,0,0,0,0.041582,0.0014676,0.012915,0.57818,0.018655,0.035791,1.5683e-06,0.44,0.6,0
0.022222,-0.0024682,0.041885,0.0017209,0.013082,4.8476e-05,0,0,0.037444,-0.014769,0,0.00012604,0,0,0,0.041885,0.0017208,0.013082,0.069154,0.018896,0.03586,1.5917e-06,0.48,0.6,0
0.023723,-0.0026485,0.042061,0.0019232,0.013195,6.8074e-05,0,0,0.037526,-0.014654,0,0.00017699,0,0,0,0.042061,0.0019231,0.013195,0.097173,0.01906,0.035857,1.6028e-06,0.52,0.6,0
0.025224,-0.0027793,0.041826,0.0010133,0.012852,5.3774e-05,0,0,0.037666,-0.01539,0,0.00013981,0,0,0,0.041826,0.0010133,0.012852,0.075492,0.018564,0.036368,1.6169e-06,0.56,0.6,0
0.026736,-0.0028574,0.041777,0.00017845,0.012587,1.8684e-05,0,0,0.037948,-0.016131,0,4.8579e-05,0,0,0,0.041777,0.00017844,0.012587,0.025735,0.018181,0.03699,1.6476e-06,0.6,0.6,0
0.02826,-0.0029005,0.041925,-0.00094629,0.012294,-9.5694e-05,0,0,0.038521,-0.017212,0,-0.00024881,0,0,0,0.041926,-0.0009465,0.012294,-0.12789,0.017758,0.038022,1.7125e-06,0.64,0.6,0
0.029818,-0.0029728,0.041053,-0.0024452,0.011582,-3.2754e-05,0,0,0.038311,-0.018236,0,-8.516e-05,0,0,0,0.041053,-0.0024452,0.011582,-0.043144,0.01673,0.038454,1.6646e-06,0.68,0.6,0
0.031325,-0.0030546,0.036384,-0.0017139,0.010401,2.8153e-05,0,0,0.04651,-0.021493,0,9.3283e-05,0,0,0,0.036384,-0.0017139,0.010401,0.040072,0.015024,0.033715,1.3511e-06,0.72,0.6,0
0.033362,-0.0027803,0.045301,-0.00096809,0.0133,-0.0018323,0,0,0.05774,-0.025421,0,-0.0071668,0,0,0,0.045378,-0.001045,0.0133,-2.3998,0.019211,0.041171,2.4905e-06,0.76,0.6,0
0.036217,-0.0022604,0.03926,0.0011744,0.01213,-0.0011612,0,0,0.070536,-0.028485,0,-0.0060382,0,0,0,0.039295,0.001139,0.01213,-1.7448,0.017521,0.034019,1.3334e-06,0.8,0.6,0
0.039005,-0.0021103,0.038168,0.00014053,0.011493,-0.0015283,0,0,0.069357,-0.029516,0,-0.0079474,0,0,0,0.03823,7.9203e-05,0.011493,-2.2978,0.016601,0.033916,1.2656e-06,0.84,0.6,0
0.041765,-0.0020622,0.037607,-0.00054628,0.011118,-0.0012668,0,0,0.06887,-0.030328,0,-0.0065873,0,0,0,0.037649,-0.00058829,0.011118,-1.8996,0.01606,0.033934,1.2314e-06,0.88,0.6,0
0.044514,-0.0020568,0.03731,-0.00097858,0.010899,-0.00088061,0,0,0.068667,-0.030882,0,-0.0045791,0,0,0,0.03733,-0.00099882,0.010899,-1.3169,0.015743,0.03398,1.2139e-06,0.92,0.6,0
0.047259,-0.0020626,0.037153,-0.0012172,0.010781,-0.00044655,0,0,0.068568,-0.031195,0,-0.0023221,0,0,0,0.037158,-0.0012224,0.010781,-0.66668,0.015572,0.034007,1.2044e-06,0.96,0.6,0
0.05,-0.0020659,0.037103,-0.0012933,0.010743,-1.5636e-05,0,0,0.068537,-0.031295,0,-8.1308e-05,0,0,0,0.037103,-0.0012933,0.010743,-0.023332,0.015518,0.034015,1.2013e-06,1,0.6,0
0,0,0.037118,0.015908,0.015908,-0.0013687,0,0,0.055146,8.6736e-19,0,-0.0071172,0,0,0,0.037206,0.01582,0.015908,-3.677,0.022978,0.021342,4.9925e-07,0,0.64,0
0.0022059,-0.00028469,0.036747,0.01238,0.014738,-0.0012874,0,0,0.057222,-0.0061311,0,-0.0066944,0,0,0,0.036814,0.012312,0.014738,-3.0159,0.021288,0.023384,6.3295e-07,0.04,0.64,0
0.0045778,-0.00060537,0.037932,0.010355,0.014486,-0.0011903,0,0,0.060959,-0.010741,0,-0.0061896,0,0,0,0.037983,0.010304,0.014486,-2.4669,0.020924,0.025843,8.0878e-07,0.08,0.64,0
0.0070826,-0.00094623,0.038861,0.0090629,0.014377,-0.0010547,0,0,0.063658,-0.013817,0,-0.0054847,0,0,0,0.038898,0.0090256,0.014377,-2.0247,0.020767,0.027589,9.4318e-07,0.12,0.64,0
0.0096704,-0.0013184,0.039366,0.0088064,0.014452,-0.00099268,0,0,0.064778,-0.014678,0,-0.005162,0,0,0,0.039399,0.0087741,0.014452,-1.8585,0.020875,0.028217,9.9825e-07,0.16,0.64,0
0.012265,-0.0017051,0.039874,0.0064029,0.013883,-0.00095412,0,0,0.050003,-0.012966,0,-0.0038552,0,0,0,0.039902,0.0063745,0.013883,-1.6684,0.020053,0.030519,1.1543e-06,0.2,0.64,0
0.013671,-0.0019604,0.040435,0.0041555,0.013377,-0.00026719,0,0,0.035176,-0.011988,0,-0.00069469,0,0,0,0.040437,0.0041535,0.013377,-0.42194,0.019323,0.032664,1.3203e-06,0.24,0.64,0
0.015079,-0.0021609,0.040519,0.0030809,0.01308,3.0163e-05,0,0,0.035671,-0.012999,0,7.8423e-05,0,0,0,0.040519,0.0030808,0.01308,0.046161,0.018893,0.033575,1.3783e-06,0.28,0.64,0
0.016524,-0.0023329,0.041036,0.0025762,0.013084,0.00028256,0,0,0.036338,-0.01366,0,0.00073466,0,0,0,0.041038,0.0025742,0.013084,0.42091,0.018899,0.034434,1.4572e-06,0.32,0.64,0
0.017986,-0.0025029,0.041265,0.002304,0.013071,0.00037392,0,0,0.036652,-0.013997,0,0.00097219,0,0,0,0.041268,0.0023004,0.013071,0.54982,0.01888,0.034854,1.4951e-06,0.36,0.64,0
0.019457,-0.0026747,0.04135,0.0020855,0.013031,0.0003528,0,0,0.036815,-0.014229,0,0.00091727,0,0,0,0.041353,0.0020824,0.013031,0.51476,0.018822,0.035101,1.5145e-06,0.4,0.64,0
0.020931,-0.0028576,0.041354,0.0019207,0.012982,0.00016731,0,0,0.036883,-0.01438,0,0.00043502,0,0,0,0.041355,0.0019199,0.012982,0.2431,0.018752,0.035231,1.5221e-06,0.44,0.64,0
0.022407,-0.0030491,0.041331,0.0018978,0.012969,2.4108e-05,0,0,0.036871,-0.014392,0,6.268e-05,0,0,0,0.041331,0.0018977,0.012969,0.035028,0.018732,0.035228,1.5204e-06,0.48,0.64,0
0.023881,-0.0032305,0.041268,0.0017424,0.012903,3.5315e-05,0,0,0.036874,-0.014509,0,9.1818e-05,0,0,0,0.041268,0.0017424,0.012903,0.051192,0.018638,0.035294,1.5203e-06,0.52,0.64,0
0.025357,-0.0033809,0.041189,0.0011647,0.012706,0.00017637,0,0,0.037028,-0.015004,0,0.00045855,0,0,0,0.04119,0.0011639,0.012706,0.25247,0.018353,0.035683,1.537e-06,0.56,0.64,0
0.026843,-0.0034956,0.041167,0.00020778,0.012412,0.00022959,0,0,0.03738,-0.015866,0,0.00059695,0,0,0,0.041168,0.0002065,0.012412,0.32116,0.017929,0.036426,1.5753e-06,0.6,0.64,0
0.028348,-0.0035931,0.041061,-0.0010333,0.012008,9.9356e-05,0,0,0.037769,-0.016954,0,0.00025833,0,0,0,0.041062,-0.0010336,0.012008,0.13523,0.017345,0.037324,1.613e-06,0.64,0.64,0
0.029864,-0.0036879,0.041368,-0.0016769,0.011907,-0.00033156,0,0,0.038299,-0.01766,0,-0.00086206,0,0,0,0.04137,-0.0016795,0.011907,-0.4413,0.017199,0.038118,1.6744e-06,0.68,0.64,0
0.031412,-0.0037958,0.04068,-0.0023331,0.011504,0.00031188,0,0,0.037929,-0.017988,0,0.00081089,0,0,0,0.040682,-0.0023353,0.011504,0.41541,0.016617,0.038035,1.6169e-06,0.72,0.64,0
0.032899,-0.0037143,0.039584,-0.0013047,0.011484,-0.0005441,0,0,0.054469,-0.022167,0,-0.00108,0,0,0,0.039605,-0.0013254,0.011484,-0.63926,0.016588,0.036367,1.3899e-06,0.76,0.64,0
0.035769,-0.0034393,0.040205,0.0014655,0.012501,-0.00036976,0,0,0.072031,-0.028693,0,-0.0019228,0,0,0,0.040209,0.001462,0.012501,-0.54681,0.018057,0.034575,1.4162e-06,0.8,0.64,0
0.038661,-0.0033265,0.039555,0.00010393,0.011898,-0.00082667,0,0,0.071909,-0.030664,0,-0.0042987,0,0,0,0.039572,8.6615e-05,0.011898,-1.1999,0.017185,0.035103,1.4034e-06,0.84,0.64,0
0.041522,-0.0033116,0.038798,-0.00080481,0.011398,-0.00083177,0,0,0.07124,-0.031727,0,-0.0043252,0,0,0,0.038815,-0.00082228,0.011398,-1.2027,0.016464,0.035158,1.3571e-06,0.88,0.64,0
0.04436,-0.0033265,0.038329,-0.0013101,0.011106,-0.00060726,0,0,0.070781,-0.032281,0,-0.0031577,0,0,0,0.038338,-0.0013195,0.011106,-0.87747,0.016042,0.035134,1.3248e-06,0.92,0.64,0
0.047184,-0.0033432,0.03806,-0.0015698,0.010947,-0.00031304,0,0,0.070494,-0.032544,0,-0.0016278,0,0,0,0.038063,-0.0015723,0.010947,-0.45255,0.015813,0.035092,1.3049e-06,0.96,0.64,0
0.05,-0.0033499,0.037972,-0.0016502,0.010897,-3.1889e-05,0,0,0.070396,-0.032622,0,-0.00016582,0,0,0,0.037972,-0.0016502,0.010897,-0.046113,0.01574,0.035075,1.2982e-06,1,0.64,0
0,0,0.037379,0.01602,0.01602,-0.0025988,0,0,0.055535,-1.301e-18,0,-0.013514,0,0,0,0.037691,0.015708,0.01602,-6.8383,0.02314,0.021829,5.3384e-07,0,0.68,0
0.0022214,-0.00054056,0.036991,0.012297,0.014786,-0.002551,0,0,0.057732,-0.0064723,0,-0.013265,0,0,0,0.037252,0.012036,0.014786,-5.8369,0.021358,0.023959,6.7509e-07,0.04,0.68,0
0.0046185,-0.001052,0.038244,0.010141,0.014516,-0.0023592,0,0,0.061695,-0.011374,0,-0.012268,0,0,0,0.038441,0.0099446,0.014516,-4.7653,0.020967,0.026508,8.6156e-07,0.08,0.68,0
0.007157,-0.0015147,0.03921,0.0087484,0.014387,-0.0019999,0,0,0.064538,-0.014661,0,-0.010399,0,0,0,0.03934,0.0086176,0.014387,-3.7403,0.020782,0.028283,1.0009e-06,0.12,0.68,0
0.0097815,-0.0019004,0.039719,0.0085046,0.014467,-0.0015042,0,0,0.065655,-0.015502,0,-0.0078217,0,0,0,0.039791,0.0084323,0.014467,-2.7525,0.020897,0.02882,1.05e-06,0.16,0.68,0
0.012409,-0.0022365,0.040258,0.0061195,0.013913,-0.0009806,0,0,0.050672,-0.013509,0,-0.0038838,0,0,0,0.040287,0.0060907,0.013913,-1.6714,0.020097,0.031079,1.204e-06,0.2,0.68,0
0.013835,-0.0024564,0.040783,0.0037162,0.01335,-0.00089959,0,0,0.035664,-0.012524,0,-0.0023389,0,0,0,0.040805,0.0036944,0.01335,-1.3894,0.019283,0.033348,1.3802e-06,0.24,0.68,0
0.015262,-0.0026795,0.040828,0.002641,0.013041,-0.00034752,0,0,0.036123,-0.013519,0,-0.00090356,0,0,0,0.040831,0.0026378,0.013041,-0.52137,0.018836,0.034199,1.4317e-06,0.28,0.68,0
0.016725,-0.0028857,0.04129,0.0022729,0.013069,8.3843e-05,0,0,0.036688,-0.014035,0,0.00021799,0,0,0,0.04129,0.0022727,0.013069,0.12312,0.018877,0.034895,1.4988e-06,0.32,0.68,0
0.018197,-0.0030652,0.041376,0.0021813,0.013067,0.00036474,0,0,0.036801,-0.014152,0,0.00094834,0,0,0,0.041379,0.002178,0.013067,0.53313,0.018875,0.035049,1.5131e-06,0.36,0.68,0
0.019669,-0.0032412,0.041322,0.0022187,0.013062,0.00036292,0,0,0.036738,-0.014097,0,0.00094358,0,0,0,0.041326,0.0022153,0.013062,0.53169,0.018868,0.034972,1.5054e-06,0.4,0.68,0
0.021136,-0.0034258,0.041187,0.0021659,0.013006,0.00023253,0,0,0.036635,-0.014092,0,0.00060459,0,0,0,0.041188,0.0021646,0.013006,0.34142,0.018786,0.03489,1.4924e-06,0.44,0.68,0
0.0226,-0.0036196,0.041034,0.0019747,0.012903,0.00012935,0,0,0.03657,-0.014206,0,0.00033632,0,0,0,0.041034,0.0019743,0.012903,0.18975,0.018637,0.034903,1.4838e-06,0.48,0.68,0
0.024062,-0.0038092,0.040881,0.0016065,0.012746,0.00017314,0,0,0.036575,-0.014482,0,0.00045016,0,0,0,0.040882,0.0016057,0.012746,0.25258,0.018411,0.035059,1.4833e-06,0.52,0.68,0
0.025526,-0.0039796,0.040735,0.0010103,0.012523,0.00028906,0,0,0.036675,-0.014967,0,0.00075156,0,0,0,0.040737,0.0010082,0.012523,0.41689,0.01809,0.035404,1.4929e-06,0.56,0.68,0
0.026996,-0.0041267,0.040549,0.00016329,0.012214,0.00034896,0,0,0.036836,-0.015666,0,0.00090729,0,0,0,0.040552,0.00016028,0.012214,0.49502,0.017642,0.035916,1.5075e-06,0.6,0.68,0
0.028473,-0.0042568,0.040269,-0.00077097,0.011849,0.00021781,0,0,0.036945,-0.016406,0,0.00056631,0,0,0,0.04027,-0.00077212,0.011849,0.30408,0.017116,0.03641,1.5124e-06,0.64,0.68,0
0.029952,-0.0043856,0.039725,-0.0016427,0.011425,4.2912e-05,0,0,0.03679,-0.016988,0,0.00011157,0,0,0,0.039725,-0.0016427,0.011425,0.059435,0.016502,0.036626,1.4835e-06,0.68,0.68,0
0.031416,-0.0044936,0.039815,-0.0022048,0.011283,-0.00010896,0,0,0.037092,-0.017534,0,-0.00028329,0,0,0,0.039816,-0.002205,0.011283,-0.14857,0.016298,0.03716,1.513e-06,0.72,0.68,0
0.032919,-0.0045536,0.039414,-0.00036882,0.011713,0.00022655,0,0,0.053235,-0.020943,0,0.001026,0,0,0,0.039415,-0.0003706,0.011713,0.35309,0.016919,0.035411,1.3583e-06,0.76,0.68,0
0.035675,-0.0045559,0.039395,0.0019506,0.012404,-1.2743e-05,0,0,0.070178,-0.027178,0,-6.6262e-05,0,0,0,0.039395,0.0019506,0.012404,-0.019498,0.017917,0.033466,1.3108e-06,0.8,0.68,0
0.038533,-0.0045634,0.039453,7.8305e-07,0.011836,-0.00023696,0,0,0.071803,-0.030772,0,-0.0012322,0,0,0,0.039454,-6.4014e-07,0.011836,-0.34412,0.017097,0.035068,1.3942e-06,0.84,0.68,0
0.041419,-0.0046004,0.039147,-0.0009692,0.011453,-0.00030314,0,0,0.072003,-0.032298,0,-0.0015764,0,0,0,0.039149,-0.00097149,0.011453,-0.43293,0.016544,0.035575,1.3974e-06,0.88,0.68,0
0.044294,-0.0046393,0.038725,-0.0015066,0.011166,-0.00023822,0,0,0.071655,-0.032948,0,-0.0012388,0,0,0,0.038727,-0.001508,0.011166,-0.33925,0.016128,0.035631,1.3714e-06,0.92,0.68,0
0.047152,-0.0046662,0.038431,-0.0017779,0.010996,-0.00012586,0,0,0.07133,-0.033212,0,-0.0006545,0,0,0,0.038431,-0.0017783,0.010996,-0.17935,0.015883,0.035585,1.3494e-06,0.96,0.68,0
0.05,-0.0046756,0.038328,-0.0018608,0.01094,-4.5393e-05,0,0,0.071208,-0.033283,0,-0.00023604,0,0,0,0.038328,-0.0018609,0.01094,-0.064714,0.015803,0.035561,1.3414e-06,1,0.68,0
0,0,0.036962,0.015841,0.015841,-0.0038581,0,0,0.054915,4.3368e-19,0,-0.020062,0,0,0,0.037645,0.015158,0.015841,-10.034,0.022881,0.022153,5.566e-07,0,0.72,0
0.0021966,-0.00080247,0.036598,0.012151,0.014625,-0.0038463,0,0,0.057131,-0.0064324,0,-0.020001,0,0,0,0.037189,0.01156,0.014625,-8.7332,0.021125,0.024243,6.9247e-07,0.04,0.72,0
0.0045705,-0.0015153,0.037922,0.0099193,0.014352,-0.003594,0,0,0.06128,-0.011526,0,-0.018689,0,0,0,0.038375,0.0094654,0.014352,-7.1983,0.020731,0.026803,8.7915e-07,0.08,0.72,0
0.007099,-0.0021191,0.0393,0.0084317,0.01432,-0.0031461,0,0,0.06495,-0.015309,0,-0.016359,0,0,0,0.039618,0.0081143,0.01432,-5.7605,0.020684,0.028905,1.0502e-06,0.12,0.72,0
0.0097665,-0.0025585,0.040492,0.007765,0.014477,-0.0023255,0,0,0.067638,-0.017451,0,-0.012093,0,0,0,0.040656,0.0076006,0.014477,-4.0443,0.020911,0.03021,1.1725e-06,0.16,0.72,0
0.01251,-0.0027858,0.040373,0.0048354,0.013562,-0.0021042,0,0,0.052001,-0.015127,0,-0.0075061,0,0,0,0.0405,0.0047081,0.013562,-3.3241,0.01959,0.032353,1.2755e-06,0.2,0.72,0
0.013927,-0.0029623,0.041416,0.0028607,0.013283,-0.00059641,0,0,0.036573,-0.013549,0,-0.0015507,0,0,0,0.041425,0.0028515,0.013283,-0.88601,0.019187,0.03456,1.487e-06,0.24,0.72,0
0.015436,-0.0032425,0.04222,0.002332,0.013366,-0.00064284,0,0,0.037511,-0.014344,0,-0.0016714,0,0,0,0.04223,0.0023216,0.013366,-0.92307,0.019306,0.035692,1.6037e-06,0.28,0.72,0
0.016927,-0.0034556,0.041711,0.0017694,0.013044,0.00013262,0,0,0.037267,-0.014657,0,0.00034481,0,0,0,0.041711,0.0017689,0.013044,0.19023,0.018842,0.035668,1.5695e-06,0.32,0.72,0
0.018417,-0.0036351,0.041629,0.0020977,0.013118,0.00046671,0,0,0.037064,-0.014326,0,0.0012134,0,0,0,0.041634,0.0020922,0.013118,0.67631,0.018948,0.035344,1.5458e-06,0.36,0.72,0
0.019893,-0.0038025,0.041394,0.0023363,0.013119,0.000526,0,0,0.036757,-0.014018,0,0.0013676,0,0,0,0.041401,0.0023292,0.013119,0.77145,0.01895,0.034949,1.5085e-06,0.4,0.72,0
0.021358,-0.003985,0.041184,0.0023478,0.013059,0.0004027,0,0,0.036562,-0.013925,0,0.001047,0,0,0,0.041188,0.0023436,0.013059,0.59403,0.018864,0.034749,1.4842e-06,0.44,0.72,0
0.022818,-0.0041855,0.040948,0.0019888,0.012881,0.00033664,0,0,0.036487,-0.01416,0,0.00087526,0,0,0,0.040951,0.0019859,0.012881,0.49503,0.018606,0.03482,1.4741e-06,0.48,0.72,0
0.024277,-0.004389,0.040687,0.001435,0.012637,0.00039735,0,0,0.036465,-0.014562,0,0.0010331,0,0,0,0.040691,0.001431,0.012637,0.57993,0.018253,0.035028,1.4698e-06,0.52,0.72,0
0.025735,-0.0045783,0.040437,0.00089052,0.012398,0.0005231,0,0,0.03645,-0.01496,0,0.0013601,0,0,0,0.040444,0.0008836,0.012398,0.75771,0.017908,0.035243,1.4658e-06,0.56,0.72,0
0.027193,-0.0047489,0.040165,0.00022303,0.012116,0.00054569,0,0,0.036463,-0.015461,0,0.0014188,0,0,0,0.040172,0.00021558,0.012116,0.7826,0.017501,0.035534,1.4632e-06,0.6,0.72,0
0.028652,-0.0049056,0.039809,-0.00061993,0.011757,0.00053415,0,0,0.036468,-0.01609,0,0.0013888,0,0,0,0.039817,-0.00062698,0.011757,0.75682,0.016982,0.035891,1.4568e-06,0.64,0.72,0
0.03011,-0.0050469,0.039275,-0.0014686,0.011342,0.00044501,0,0,0.036313,-0.016654,0,0.001157,0,0,0,0.03928,-0.0014735,0.011342,0.62569,0.016383,0.036095,1.429e-06,0.68,0.72,0
0.031557,-0.0051986,0.039386,-0.002099,0.011186,0.00032359,0,0,0.03666,-0.017271,0,0.00084132,0,0,0,0.039389,-0.0021016,0.011186,0.44687,0.016158,0.036698,1.4622e-06,0.72,0.72,0
0.033043,-0.0053897,0.039036,-0.00030949,0.011618,-0.00020201,0,0,0.052708,-0.020674,0,-0.00083666,0,0,0,0.039037,-0.00031063,0.011618,-0.30654,0.016781,0.035026,1.3174e-06,0.76,0.72,0
0.035773,-0.0056136,0.039064,0.0019816,0.012314,-3.9025e-05,0,0,0.069552,-0.026864,0,-0.00020293,0,0,0,0.039065,0.0019815,0.012314,-0.060297,0.017787,0.033147,1.2761e-06,0.8,0.72,0
0.038607,-0.0057882,0.039144,1.9342e-05,0.011749,0.00014772,0,0,0.071226,-0.030497,0,0.00076813,0,0,0,0.039144,1.8785e-05,0.011749,0.21632,0.016971,0.034777,1.3609e-06,0.84,0.72,0
0.041472,-0.0058955,0.038867,-0.00097464,0.011368,0.00019627,0,0,0.071498,-0.03209,0,0.0010206,0,0,0,0.038868,-0.00097561,0.011368,0.28224,0.01642,0.035328,1.3679e-06,0.88,0.72,0
0.044327,-0.0059623,0.03847,-0.0015264,0.011083,0.00014651,0,0,0.071206,-0.032785,0,0.00076186,0,0,0,0.038471,-0.001527,0.011083,0.20988,0.016009,0.035418,1.3453e-06,0.92,0.72,0
0.047168,-0.0060002,0.038189,-0.0018056,0.010915,7.403e-05,0,0,0.070911,-0.033073,0,0.00038495,0,0,0,0.038189,-0.0018057,0.010915,0.10605,0.015766,0.035392,1.3252e-06,0.96,0.72,0
0.05,-0.0060125,0.03809,-0.0018909,0.01086,-5.9195e-05,0,0,0.070799,-0.033152,0,-0.00030781,0,0,0,0.03809,-0.001891,0.01086,-0.084831,0.015686,0.035374,1.3179e-06,1,0.72,0
0,0,0.035952,0.015408,0.015408,-0.0050728,0,0,0.053415,-4.3368e-19,0,-0.026379,0,0,0,0.037137,0.014224,0.015408,-13.141,0.022256,0.022344,5.6753e-07,0,0.76,0
0.0021366,-0.0010551,0.035604,0.011922,0.014258,-0.0050814,0,0,0.055501,-0.0060742,0,-0.026423,0,0,0,0.036649,0.010877,0.014258,-11.613,0.020595,0.024258,6.8542e-07,0.04,0.76,0
0.0044401,-0.0019741,0.036776,0.00961,0.013916,-0.0047855,0,0,0.059436,-0.011195,0,-0.024885,0,0,0,0.037594,0.0087917,0.013916,-9.7041,0.020101,0.026613,8.4836e-07,0.08,0.76,0
0.0068915,-0.0027394,0.038014,0.0079198,0.01378,-0.004393,0,0,0.063008,-0.015237,0,-0.022844,0,0,0,0.038642,0.0072917,0.01378,-8.1375,0.019905,0.028663,1.0036e-06,0.12,0.76,0
0.0094808,-0.0032965,0.039554,0.0070177,0.013971,-0.0035518,0,0,0.066514,-0.01808,0,-0.018469,0,0,0,0.039937,0.0066345,0.013971,-6.1581,0.020181,0.030308,1.1523e-06,0.16,0.76,0
0.012213,-0.0034467,0.046171,0.0054305,0.01548,-0.0036921,0,0,0.055354,-0.017869,0,-0.01431,0,0,0,0.046518,0.0050829,0.01548,-5.398,0.022361,0.037339,2.2822e-06,0.2,0.76,0
0.014168,-0.0035403,0.036574,0.002043,0.011585,-0.00080126,0,0,0.044707,-0.016958,0,-0.0031063,0,0,0,0.036594,0.0020233,0.011585,-1.4124,0.016734,0.030919,1.234e-06,0.24,0.76,0
0.015622,-0.003827,0.04133,0.0010089,0.012702,-0.00019088,0,0,0.037217,-0.015201,0,-0.0004963,0,0,0,0.041331,0.001008,0.012702,-0.27124,0.018347,0.035933,1.5599e-06,0.28,0.76,0
0.017145,-0.0040583,0.042154,0.0015884,0.013123,0.00010698,0,0,0.037741,-0.014995,0,0.00027814,0,0,0,0.042154,0.0015881,0.013123,0.1511,0.018955,0.036204,1.6293e-06,0.32,0.76,0
0.018641,-0.0042113,0.041788,0.0018882,0.013103,0.00049761,0,0,0.037291,-0.014579,0,0.0012938,0,0,0,0.041794,0.001882,0.013103,0.7144,0.018926,0.035652,1.5738e-06,0.36,0.76,0
0.020129,-0.0043626,0.041596,0.0021227,0.013116,0.00067446,0,0,0.037025,-0.014291,0,0.0017536,0,0,0,0.041608,0.0021112,0.013116,0.97859,0.018945,0.035305,1.5419e-06,0.4,0.76,0
0.021603,-0.0045398,0.041554,0.0025492,0.013231,0.00072671,0,0,0.03682,-0.013886,0,0.0018895,0,0,0,0.041568,0.0025356,0.013231,1.067,0.019111,0.034935,1.5177e-06,0.44,0.76,0
0.023074,-0.0047524,0.041134,0.0019336,0.01292,0.00064075,0,0,0.036678,-0.014283,0,0.001666,0,0,0,0.041144,0.0019231,0.01292,0.93619,0.018663,0.035042,1.4984e-06,0.48,0.76,0
0.024538,-0.0049742,0.040586,0.0010911,0.012503,0.0008735,0,0,0.036508,-0.014836,0,0.0022711,0,0,0,0.040605,0.0010718,0.012503,1.2664,0.01806,0.035237,1.4757e-06,0.52,0.76,0
0.025995,-0.0051764,0.040254,0.00099846,0.012376,0.00093795,0,0,0.036242,-0.01479,0,0.0024387,0,0,0,0.040276,0.00097606,0.012376,1.368,0.017876,0.035021,1.4437e-06,0.56,0.76,0
0.027437,-0.0053636,0.039868,0.00048237,0.012105,0.00080769,0,0,0.036092,-0.01511,0,0.0021,0,0,0,0.039885,0.00046581,0.012105,1.1743,0.017485,0.035079,1.4221e-06,0.6,0.76,0
0.028882,-0.005544,0.039612,-0.00053356,0.011723,0.00065044,0,0,0.036255,-0.015934,0,0.0016911,0,0,0,0.039622,-0.00054409,0.011723,0.92798,0.016934,0.035652,1.4326e-06,0.64,0.76,0
0.030337,-0.0057179,0.039935,-0.0011826,0.011626,0.00072493,0,0,0.036802,-0.016651,0,0.0018848,0,0,0,0.039948,-0.0011953,0.011626,1.0097,0.016793,0.036464,1.4922e-06,0.68,0.76,0
0.031826,-0.0058753,0.039394,-0.0019842,0.011223,-0.00017503,0,0,0.036623,-0.01717,0,-0.00045509,0,0,0,0.039395,-0.001985,0.011223,-0.24236,0.016211,0.036609,1.459e-06,0.72,0.76,0
0.033267,-0.0062076,0.038486,-0.001092,0.011218,0.00045232,0,0,0.052887,-0.021338,0,0.00087988,0,0,0,0.038502,-0.0011072,0.011218,0.54838,0.016204,0.035208,1.272e-06,0.76,0.76,0
0.036057,-0.006705,0.039194,0.0015552,0.012225,0.00023575,0,0,0.07012,-0.027741,0,0.0012259,0,0,0,0.039195,0.0015537,0.012225,0.35885,0.017658,0.033602,1.3066e-06,0.8,0.76,0
0.038877,-0.0070031,0.03864,0.00013142,0.011631,0.00066214,0,0,0.070222,-0.0299,0,0.0034431,0,0,0,0.038651,0.00012004,0.011631,0.98478,0.016801,0.034258,1.3065e-06,0.84,0.76,0
0.041675,-0.0071676,0.037984,-0.00083352,0.011145,0.00067353,0,0,0.069782,-0.031145,0,0.0035023,0,0,0,0.037996,-0.00084521,0.011145,0.99374,0.016099,0.034448,1.2743e-06,0.88,0.76,0
0.044459,-0.0072621,0.03758,-0.0013777,0.010861,0.00048756,0,0,0.06947,-0.03182,0,0.0025353,0,0,0,0.037586,-0.0013838,0.010861,0.71692,0.015688,0.034517,1.2512e-06,0.92,0.76,0
0.047233,-0.007312,0.037344,-0.0016578,0.010706,0.00024934,0,0,0.06926,-0.032146,0,0.0012966,0,0,0,0.037346,-0.0016594,0.010706,0.36628,0.015464,0.034525,1.2362e-06,0.96,0.76,0
0.05,-0.0073277,0.037266,-0.0017444,0.010656,-7.5592e-05,0,0,0.069185,-0.032242,0,-0.00039308,0,0,0,0.037266,-0.0017445,0.010656,-0.11102,0.015393,0.034523,1.231e-06,1,0.76,0
0,0,0.03461,0.014833,0.014833,-0.0061943,0,0,0.05142,-1.5179e-18,0,-0.03221,0,0,0,0.036389,0.013053,0.014833,-16.032,0.021425,0.0225,5.7266e-07,0,0.8,0
0.0020568,-0.0012884,0.034251,0.011587,0.013752,-0.0061684,0,0,0.053299,-0.0056271,0,-0.032075,0,0,0,0.035821,0.010017,0.013752,-14.28,0.019863,0.024154,6.6585e-07,0.04,0.8,0
0.004264,-0.0024108,0.035074,0.009129,0.013261,-0.0057321,0,0,0.056715,-0.010743,0,-0.029807,0,0,0,0.036284,0.0079191,0.013261,-11.919,0.019155,0.026107,7.8651e-07,0.08,0.8,0
0.006594,-0.0033381,0.035556,0.0071273,0.012805,-0.0051591,0,0,0.059153,-0.014762,0,-0.026827,0,0,0,0.036464,0.0062201,0.012805,-9.974,0.018496,0.027548,8.7039e-07,0.12,0.8,0
0.0089962,-0.0040049,0.035651,0.0057214,0.012412,-0.0042854,0,0,0.060422,-0.017395,0,-0.022284,0,0,0,0.036252,0.0051199,0.012412,-7.9899,0.017928,0.028203,8.9768e-07,0.16,0.8,0
0.011428,-0.0042692,0.036864,0.0042595,0.012337,-0.0036506,0,0,0.06377,-0.021002,0,-0.018983,0,0,0,0.037268,0.0038557,0.012337,-6.311,0.01782,0.030082,1.0325e-06,0.2,0.8,0
0.014098,-0.0042687,0.042186,0.0019886,0.013253,-0.0028028,0,0,0.052524,-0.02018,0,-0.011326,0,0,0,0.042402,0.001773,0.013253,-4.2512,0.019142,0.036279,1.8519e-06,0.24,0.8,0
0.015914,-0.0044585,0.033882,0.00020858,0.010227,-0.0012805,0,0,0.042104,-0.017681,0,-0.0058043,0,0,0,0.03396,0.00013039,0.010227,-2.6376,0.014773,0.030081,1.0612e-06,0.28,0.8,0
0.017334,-0.0046552,0.04022,0.00054951,0.012231,-0.00086263,0,0,0.036386,-0.015186,0,-0.0022428,0,0,0,0.040239,0.00053076,0.012231,-1.2451,0.017667,0.035342,1.4579e-06,0.32,0.8,0
0.018825,-0.0048014,0.042085,0.0011676,0.012976,-0.00011725,0,0,0.037842,-0.015351,0,-0.00030484,0,0,0,0.042086,0.0011673,0.012976,-0.16418,0.018743,0.036477,1.6405e-06,0.36,0.8,0
0.020361,-0.0049457,0.042875,0.0015267,0.013321,0.00056182,0,0,0.038421,-0.015332,0,0.0014607,0,0,0,0.042882,0.0015191,0.013321,0.77832,0.019241,0.036906,1.7198e-06,0.4,0.8,0
0.021899,-0.0050959,0.042307,0.0018,0.013232,0.0011322,0,0,0.037798,-0.014862,0,0.0029438,0,0,0,0.042339,0.0017684,0.013232,1.5998,0.019113,0.036226,1.6427e-06,0.44,0.8,0
0.023385,-0.0053282,0.041725,0.0017257,0.013035,0.0019736,0,0,0.037297,-0.014702,0,0.0051313,0,0,0,0.041822,0.0016285,0.013035,2.8179,0.018829,0.035877,1.5887e-06,0.48,0.8,0
0.024882,-0.0055759,0.040905,0.001404,0.012693,0.0016582,0,0,0.036676,-0.014675,0,0.0043114,0,0,0,0.040975,0.0013345,0.012693,2.3996,0.018334,0.035357,1.5054e-06,0.52,0.8,0
0.026319,-0.0057615,0.039635,0.0012665,0.012271,0.0015092,0,0,0.035574,-0.014305,0,0.0039239,0,0,0,0.039694,0.0012072,0.012271,2.2491,0.017724,0.03432,1.3722e-06,0.56,0.8,0
0.027728,-0.0059577,0.039125,0.00083955,0.011989,0.0010759,0,0,0.035276,-0.014495,0,0.0027972,0,0,0,0.039155,0.00080934,0.011989,1.6084,0.017318,0.034157,1.3319e-06,0.6,0.8,0
0.029141,-0.0061803,0.039305,-8.1738e-05,0.011767,0.00070096,0,0,0.0358,-0.015404,0,0.0018225,0,0,0,0.039318,-9.4208e-05,0.011767,1.0192,0.016997,0.035022,1.3833e-06,0.64,0.8,0
0.030592,-0.006379,0.038735,-0.0015653,0.011151,0.00023632,0,0,0.035859,-0.016531,0,0.00061443,0,0,0,0.038736,-0.0015666,0.011151,0.33597,0.016107,0.035686,1.3743e-06,0.68,0.8,0
0.03201,-0.0065721,0.034612,-0.0011627,0.010035,-0.00013403,0,0,0.044032,-0.019807,0,-0.00051074,0,0,0,0.034612,-0.0011632,0.010035,-0.22552,0.014495,0.031698,1.1442e-06,0.72,0.8,0
0.033943,-0.0070967,0.043107,-0.00080424,0.012691,0.0015088,0,0,0.054918,-0.023972,0,0.0059521,0,0,0,0.043162,-0.00086001,0.012691,2.0973,0.018331,0.039054,2.1305e-06,0.76,0.8,0
0.036667,-0.0078328,0.037644,0.0012627,0.011672,0.0008634,0,0,0.067527,-0.027064,0,0.0044897,0,0,0,0.037665,0.0012423,0.011672,1.3587,0.01686,0.032488,1.1687e-06,0.8,0.8,0
0.039345,-0.0081802,0.03676,0.00013711,0.011069,0.0012306,0,0,0.066796,-0.028423,0,0.0063991,0,0,0,0.036801,9.5805e-05,0.011069,1.9224,0.015989,0.032633,1.1283e-06,0.84,0.8,0
0.042011,-0.0083871,0.03633,-0.00062976,0.01071,0.0010292,0,0,0.066612,-0.029484,0,0.005352,0,0,0,0.036359,-0.0006584,0.01071,1.5939,0.01547,0.032843,1.1119e-06,0.88,0.8,0
0.044674,-0.0085079,0.036107,-0.0011136,0.010498,0.00071909,0,0,0.066583,-0.03019,0,0.0037393,0,0,0,0.036121,-0.0011275,0.010498,1.1064,0.015164,0.033008,1.1045e-06,0.92,0.8,0
0.047337,-0.0085718,0.035987,-0.0013775,0.010383,0.00036567,0,0,0.066571,-0.030577,0,0.0019015,0,0,0,0.035991,-0.0013811,0.010383,0.56066,0.014998,0.033097,1.1002e-06,0.96,0.8,0
0.05,-0.0085919,0.035948,-0.0014608,0.010346,-9.6304e-05,0,0,0.066565,-0.030698,0,-0.00050078,0,0,0,0.035949,-0.0014611,0.010346,-0.1475,0.014945,0.033124,1.0986e-06,1,0.8,0
0,0,0.033341,0.014289,0.014289,-0.0072371,0,0,0.049535,1.5179e-18,0,-0.037633,0,0,0,0.035778,0.011852,0.014289,-18.612,0.02064,0.022806,5.8581e-07,0,0.84,0
0.0019814,-0.0015053,0.032957,0.01111,0.01322,-0.0070983,0,0,0.051316,-0.0054861,0,-0.036911,0,0,0,0.035061,0.0090063,0.01322,-16.508,0.019096,0.024224,6.562e-07,0.04,0.84,0
0.0041053,-0.0028335,0.033515,0.0083617,0.012563,-0.0063653,0,0,0.054475,-0.010923,0,-0.033099,0,0,0,0.035034,0.0068426,0.012563,-13.422,0.018146,0.025811,7.3902e-07,0.08,0.84,0
0.0063394,-0.0039204,0.033728,0.0061989,0.011978,-0.0053308,0,0,0.056549,-0.015026,0,-0.02772,0,0,0,0.034724,0.0052027,0.011978,-10.585,0.017302,0.026784,7.7806e-07,0.12,0.84,0
0.0086292,-0.0046881,0.033747,0.00473,0.011543,-0.0041698,0,0,0.05773,-0.017714,0,-0.021683,0,0,0,0.034334,0.0041427,0.011543,-8.0174,0.016673,0.027256,7.8721e-07,0.16,0.84,0
0.010958,-0.0051268,0.032962,0.0027329,0.010708,-0.003112,0,0,0.057859,-0.020737,0,-0.016182,0,0,0,0.033279,0.0024159,0.010708,-5.8171,0.015468,0.027665,7.6714e-07,0.2,0.84,0
0.013258,-0.0052335,0.033207,0.0013587,0.01037,-0.0031766,0,0,0.059378,-0.023429,0,-0.016518,0,0,0,0.033521,0.0010449,0.01037,-5.6407,0.014979,0.028962,8.2563e-07,0.24,0.84,0
0.015708,-0.0052037,0.036726,-0.00033648,0.010917,-0.0028056,0,0,0.047095,-0.019945,0,-0.011143,0,0,0,0.036953,-0.00056358,0.010917,-4.5591,0.015769,0.033301,1.2805e-06,0.28,0.84,0
0.017309,-0.0052731,0.033094,0.00030987,0.010021,-0.0019207,0,0,0.039993,-0.017525,0,-0.0081987,0,0,0,0.033247,0.00015662,0.010021,-3.9581,0.014475,0.029438,1.0976e-06,0.32,0.84,0
0.018908,-0.0054394,0.033564,0.00064287,0.010262,-0.0010627,0,0,0.04039,-0.017035,0,-0.0045804,0,0,0,0.033613,0.00059351,0.010262,-2.2513,0.014823,0.029406,1.1252e-06,0.36,0.84,0
0.02054,-0.0055892,0.034615,0.0011121,0.010718,-9.1257e-05,0,0,0.041422,-0.016933,0,-0.00089768,0,0,0,0.034622,0.0011052,0.010718,-0.42793,0.015482,0.029895,1.2123e-06,0.4,0.84,0
0.022221,-0.0057287,0.036048,0.0017848,0.01135,0.00077216,0,0,0.04281,-0.016958,0,0.0021057,0,0,0,0.036072,0.0017608,0.01135,1.0239,0.016394,0.030665,1.3444e-06,0.44,0.84,0
0.023965,-0.0059286,0.033108,0.0018148,0.010477,0.0017395,0,0,0.040317,-0.015015,0,0.0054369,0,0,0,0.033215,0.0017081,0.010477,2.8658,0.015133,0.02817,9.4244e-07,0.48,0.84,0
0.025316,-0.0061482,0.037899,0.0010655,0.011689,0.0017437,0,0,0.034073,-0.013811,0,0.0045336,0,0,0,0.037982,0.00098311,0.011689,2.7043,0.016885,0.032976,1.2085e-06,0.52,0.84,0
0.02669,-0.0063208,0.038444,0.0011259,0.011871,0.001669,0,0,0.034545,-0.013969,0,0.0043394,0,0,0,0.038518,0.0010514,0.011871,2.5557,0.017147,0.033399,1.2584e-06,0.56,0.84,0
0.028079,-0.0065232,0.038195,0.00070077,0.011669,0.0014798,0,0,0.034485,-0.014259,0,0.0038476,0,0,0,0.038254,0.00064246,0.011669,2.2567,0.016855,0.033488,1.2475e-06,0.6,0.84,0
0.029449,-0.0067763,0.03691,-0.00037799,0.01096,0.0014444,0,0,0.033735,-0.014739,0,0.0037555,0,0,0,0.036966,-0.00043385,0.01096,2.215,0.015831,0.033203,1.161e-06,0.64,0.84,0
0.030778,-0.0070404,0.03144,-0.0012568,0.009055,0.00099041,0,0,0.039916,-0.018142,0,0.0045115,0,0,0,0.031489,-0.0013059,0.009055,2.1138,0.013079,0.029037,8.7943e-07,0.68,0.84,0
0.032509,-0.0074121,0.038791,-0.001779,0.011104,0.0015062,0,0,0.050356,-0.022995,0,0.0062463,0,0,0,0.038856,-0.0018446,0.011104,2.3191,0.016038,0.036019,1.5567e-06,0.72,0.84,0
0.035091,-0.008195,0.034299,4.531e-05,0.010303,0.0014461,0,0,0.06239,-0.026671,0,0.0075197,0,0,0,0.03436,-1.5631e-05,0.010303,2.4131,0.014883,0.030553,9.2136e-07,0.76,0.84,0
0.0375,-0.0088701,0.033617,0.00067931,0.010289,0.0012456,0,0,0.060654,-0.024985,0,0.0064773,0,0,0,0.033664,0.00063227,0.010289,2.1627,0.014862,0.029417,8.4831e-07,0.8,0.84,0
0.039943,-0.009277,0.033906,9.056e-05,0.010199,0.0013154,0,0,0.061638,-0.026282,0,0.0068402,0,0,0,0.033957,3.9467e-05,0.010199,2.2243,0.014732,0.03015,8.8775e-07,0.84,0.84,0
0.042431,-0.0095263,0.034168,-0.00040846,0.010128,0.0011089,0,0,0.062504,-0.027394,0,0.0057665,0,0,0,0.034203,-0.00044399,0.010128,1.8351,0.014629,0.030756,9.2082e-07,0.88,0.84,0
0.044943,-0.0096773,0.034258,-0.00079871,0.010038,0.00078108,0,0,0.062972,-0.028175,0,0.0040616,0,0,0,0.034275,-0.0008161,0.010038,1.2757,0.014499,0.031118,9.3687e-07,0.92,0.84,0
0.047469,-0.0097582,0.034291,-0.001027,0.0099792,0.00040165,0,0,0.063211,-0.028616,0,0.0020886,0,0,0,0.034296,-0.0010316,0.0099792,0.65148,0.014414,0.031309,9.4435e-07,0.96,0.84,0
0.05,-0.0097836,0.034299,-0.0011012,0.0099593,-0.00012224,0,0,0.063283,-0.028757,0,-0.00063566,0,0,0,0.034299,-0.0011017,0.0099593,-0.19785,0.014386,0.031369,9.4652e-07,1,0.84,0
0,0,0.032601,0.013972,0.013972,-0.0083043,0,0,0.048436,0,0,-0.043182,0,0,0,0.035765,0.010807,0.013972,-20.859,0.020182,0.023536,6.2897e-07,0,0.88,0
0.0019374,-0.0017273,0.032133,0.010377,0.012753,-0.0079182,0,0,0.050388,-0.0061782,0,-0.041175,0,0,0,0.034709,0.0077999,0.012753,-18.026,0.018421,0.024807,6.7988e-07,0.04,0.88,0
0.004031,-0.0032847,0.032495,0.0070158,0.011853,-0.0067288,0,0,0.053669,-0.012577,0,-0.03499,0,0,0,0.034163,0.005348,0.011853,-13.921,0.017121,0.026176,7.3287e-07,0.08,0.88,0
0.0062309,-0.0045401,0.032492,0.0047078,0.01116,-0.0050826,0,0,0.055463,-0.016775,0,-0.026429,0,0,0,0.033392,0.0038072,0.01116,-10.048,0.01612,0.02668,7.3137e-07,0.12,0.88,0
0.0084681,-0.0054221,0.031948,0.0032692,0.010565,-0.0035098,0,0,0.055595,-0.018969,0,-0.018251,0,0,0,0.032371,0.0028459,0.010565,-6.8769,0.015261,0.026522,6.916e-07,0.16,0.88,0
0.010679,-0.0059282,0.031051,0.0021766,0.0099682,-0.0023946,0,0,0.054815,-0.020258,0,-0.012452,0,0,0,0.031248,0.0019794,0.0099682,-4.7087,0.014399,0.026204,6.428e-07,0.2,0.88,0
0.012853,-0.0061431,0.029201,0.00060501,0.0089418,-0.0016869,0,0,0.052674,-0.021676,0,-0.0087718,0,0,0,0.0293,0.00050584,0.0089418,-3.3643,0.012916,0.025639,5.6027e-07,0.24,0.88,0
0.014892,-0.0061068,0.027737,-0.00035284,0.0082153,-0.0020939,0,0,0.050757,-0.022277,0,-0.010888,0,0,0,0.027892,-0.00050806,0.0082153,-4.2398,0.011867,0.025198,5.0205e-07,0.28,0.88,0
0.016914,-0.0060573,0.026593,-0.00016366,0.007929,-0.0015453,0,0,0.048528,-0.021041,0,-0.0080356,0,0,0,0.026683,-0.00025261,0.007929,-3.2944,0.011453,0.023918,4.3559e-07,0.32,0.88,0
0.018775,-0.0061642,0.025265,0.00021493,0.0076439,-0.0011915,0,0,0.045814,-0.019315,0,-0.0061957,0,0,0,0.025321,0.00015838,0.0076439,-2.7171,0.011041,0.02238,3.6607e-07,0.36,0.88,0
0.020579,-0.0063004,0.025189,0.00057081,0.007728,-0.00072956,0,0,0.045399,-0.018609,0,-0.0037937,0,0,0,0.025211,0.00054921,0.007728,-1.696,0.011163,0.02197,3.5508e-07,0.4,0.88,0
0.022407,-0.0064525,0.026129,0.0011633,0.0081878,-0.00027197,0,0,0.046648,-0.018264,0,-0.0014143,0,0,0,0.026132,0.0011604,0.0081878,-0.62406,0.011827,0.022305,3.8501e-07,0.44,0.88,0
0.024311,-0.0065293,0.030016,8.6815e-05,0.0090309,0.0005616,0,0,0.037979,-0.015746,0,0.0004878,0,0,0,0.030076,2.7443e-05,0.0090309,0.50269,0.013045,0.026714,7.0025e-07,0.48,0.88,0
0.025637,-0.0066808,0.028456,0.00075762,0.0087641,0.00064939,0,0,0.034133,-0.01416,0,0.0015431,0,0,0,0.028483,0.00073007,0.0087641,0.93556,0.012659,0.024737,6.8143e-07,0.52,0.88,0
0.027041,-0.006879,0.029838,0.0010094,0.0092542,0.0011437,0,0,0.035679,-0.014459,0,0.0041711,0,0,0,0.029884,0.00096322,0.0092542,2.3743,0.013367,0.025796,7.7883e-07,0.56,0.88,0
0.028492,-0.0070983,0.030381,0.000754,0.0093405,0.0017227,0,0,0.03647,-0.015135,0,0.0068072,0,0,0,0.030495,0.00064006,0.0093405,3.7301,0.013492,0.026596,8.3481e-07,0.6,0.88,0
0.029959,-0.0073594,0.030618,9.273e-05,0.0092132,0.0020728,0,0,0.037102,-0.016424,0,0.0087805,0,0,0,0.030805,-9.4384e-05,0.0092132,4.5468,0.013308,0.027466,8.7844e-07,0.64,0.88,0
0.03146,-0.0077982,0.033969,-0.0017269,0.0096726,0.0023615,0,0,0.04441,-0.020166,0,0.0092448,0,0,0,0.034133,-0.0018908,0.0096726,3.9579,0.013972,0.031864,1.0409e-06,0.68,0.88,0
0.033787,-0.0084916,0.030855,-0.00080862,0.0090138,0.0019123,0,0,0.056786,-0.025538,0,0.0099437,0,0,0,0.03097,-0.00092369,0.0090138,3.4436,0.01302,0.028267,6.9522e-07,0.72,0.88,0
0.036003,-0.0092304,0.030652,-0.00026977,0.0091148,0.00094706,0,0,0.055998,-0.0244,0,0.0049247,0,0,0,0.030681,-0.00029875,0.0091148,1.7526,0.013166,0.027509,6.6243e-07,0.76,0.88,0
0.038267,-0.0098316,0.031445,0.00051764,0.0095887,0.00094324,0,0,0.056826,-0.023585,0,0.0049048,0,0,0,0.031473,0.0004889,0.0095887,1.7453,0.01385,0.027584,6.9578e-07,0.8,0.88,0
0.040549,-0.010283,0.03172,0.00021258,0.0095799,0.00099133,0,0,0.057565,-0.024355,0,0.0051549,0,0,0,0.031752,0.00018142,0.0095799,1.8003,0.013838,0.028077,7.222e-07,0.84,0.88,0
0.042872,-0.010579,0.032077,-0.00019186,0.0095654,0.000917,0,0,0.058529,-0.025369,0,0.0047684,0,0,0,0.032103,-0.00021789,0.0095654,1.6265,0.013817,0.028708,7.5648e-07,0.88,0.88,0
0.045231,-0.010762,0.032333,-0.00049143,0.0095524,0.00068454,0,0,0.059229,-0.026114,0,0.0035596,0,0,0,0.032347,-0.0005057,0.0095524,1.1942,0.013798,0.029155,7.8101e-07,0.92,0.88,0
0.047611,-0.010861,0.032466,-0.00067188,0.0095381,0.00036262,0,0,0.059611,-0.026546,0,0.0018856,0,0,0,0.032469,-0.00067585,0.0095381,0.62688,0.013777,0.0294,7.9407e-07,0.96,0.88,0
0.05,-0.010892,0.032506,-0.00073095,0.0095326,-0.00015057,0,0,0.059731,-0.026685,0,-0.00078294,0,0,0,0.032507,-0.00073164,0.0095326,-0.25955,0.013769,0.029479,7.9818e-07,1,0.88,0
0,0,0.033185,0.014222,0.014222,-0.0096133,0,0,0.049304,-4.7705e-18,0,-0.049989,0,0,0,0.037206,0.010201,0.014222,-22.698,0.020543,0.025236,7.5525e-07,0,0.92,0
0.0019721,-0.0019996,0.032065,0.0088106,0.012263,-0.0087056,0,0,0.051487,-0.0089756,0,-0.045269,0,0,0,0.034963,0.0059127,0.012263,-18.411,0.017713,0.026453,7.6922e-07,0.04,0.92,0
0.0041189,-0.0038397,0.0321,0.0045442,0.010993,-0.0064544,0,0,0.054878,-0.016768,0,-0.033563,0,0,0,0.033537,0.0031073,0.010993,-12.55,0.015879,0.027353,7.6401e-07,0.08,0.92,0
0.0063624,-0.0052624,0.031765,0.0029932,0.010427,-0.0041939,0,0,0.055477,-0.019329,0,-0.021808,0,0,0,0.032364,0.0023943,0.010427,-8.1265,0.015062,0.026869,7.0426e-07,0.12,0.92,0
0.0085571,-0.0062056,0.030539,0.0020219,0.0097683,-0.0024468,0,0,0.054004,-0.020141,0,-0.012723,0,0,0,0.030748,0.0018135,0.0097683,-4.8685,0.01411,0.02589,6.1583e-07,0.16,0.92,0
0.010683,-0.0067475,0.029243,0.0012827,0.0091577,-0.0012507,0,0,0.052222,-0.020475,0,-0.0065036,0,0,0,0.029299,0.0012269,0.0091577,-2.5561,0.013228,0.025066,5.4427e-07,0.2,0.92,0
0.012735,-0.0069675,0.028278,0.00078252,0.0087182,-0.00056024,0,0,0.050856,-0.020633,0,-0.0029133,0,0,0,0.028289,0.00077111,0.0087182,-1.1668,0.012593,0.02453,4.9853e-07,0.24,0.92,0
0.014751,-0.0069858,0.027326,-0.00015724,0.0081506,-0.00024375,0,0,0.049856,-0.0216,0,-0.0012675,0,0,0,0.027328,-0.0001594,0.0081506,-0.50811,0.011773,0.024417,4.6619e-07,0.28,0.92,0
0.016723,-0.0069564,0.026509,-0.00070752,0.0077404,-0.00051286,0,0,0.048798,-0.021965,0,-0.0026669,0,0,0,0.026519,-0.00071718,0.0077404,-1.0792,0.011181,0.024145,4.3529e-07,0.32,0.92,0
0.018655,-0.0069846,0.026014,-0.00022168,0.0077376,-0.00070182,0,0,0.047518,-0.020694,0,-0.0036495,0,0,0,0.026032,-0.00024044,0.0077376,-1.5312,0.011177,0.02333,4.0442e-07,0.36,0.92,0
0.020525,-0.0070779,0.025324,8.5084e-05,0.0076229,-0.00072695,0,0,0.046024,-0.019598,0,-0.0037801,0,0,0,0.025345,6.4164e-05,0.0076229,-1.6484,0.011011,0.022476,3.6861e-07,0.4,0.92,0
0.022337,-0.0071898,0.02442,0.00037406,0.0074382,-0.00054657,0,0,0.044152,-0.018367,0,-0.0028421,0,0,0,0.024432,0.00036164,0.0074382,-1.3014,0.010744,0.021427,3.2575e-07,0.44,0.92,0
0.024057,-0.0072174,0.023882,0.00040136,0.0072849,-0.00062127,0,0,0.043151,-0.017897,0,-0.0032306,0,0,0,0.023898,0.00038493,0.0072849,-1.5146,0.010523,0.020934,3.044e-07,0.48,0.92,0
0.025789,-0.007281,0.023596,0.00081187,0.0073223,0.00015745,0,0,0.042311,-0.016927,0,0.00081875,0,0,0,0.023597,0.00081079,0.0073223,0.39593,0.010577,0.020328,2.8692e-07,0.52,0.92,0
0.027442,-0.0074775,0.02312,0.00081525,0.0071805,0.00072881,0,0,0.041442,-0.01655,0,0.0037898,0,0,0,0.023144,0.00079146,0.0071805,1.8695,0.010372,0.01994,2.7074e-07,0.56,0.92,0
0.029104,-0.007734,0.02366,0.00056252,0.0072667,0.0013171,0,0,0.042622,-0.017431,0,0.006849,0,0,0,0.023735,0.00048766,0.0072667,3.2532,0.010496,0.020707,2.967e-07,0.6,0.92,0
0.030852,-0.0080901,0.025192,-7.4758e-05,0.0075351,0.0015371,0,0,0.045907,-0.019786,0,0.007993,0,0,0,0.025285,-0.00016793,0.0075351,3.4686,0.010884,0.022608,3.6957e-07,0.64,0.92,0
0.032777,-0.0087025,0.026292,-0.00091102,0.0076142,0.0016811,0,0,0.048562,-0.022166,0,0.0087418,0,0,0,0.026395,-0.0010145,0.0076142,3.523,0.010998,0.024274,4.3399e-07,0.68,0.92,0
0.034736,-0.0094552,0.02751,-0.00067666,0.0080499,0.0006869,0,0,0.050595,-0.022689,0,0.0035719,0,0,0,0.027526,-0.00069339,0.0080499,1.3952,0.011628,0.025021,4.8593e-07,0.72,0.92,0
0.036825,-0.010147,0.02894,8.9471e-05,0.0087089,0.00051848,0,0,0.052602,-0.022411,0,0.0026961,0,0,0,0.02895,8.0157e-05,0.0087089,1.0292,0.01258,0.025667,5.4914e-07,0.76,0.92,0
0.038945,-0.010757,0.029475,0.00022334,0.0089094,0.00049201,0,0,0.05347,-0.022584,0,0.0025585,0,0,0,0.029483,0.00021506,0.0089094,0.96336,0.012869,0.026033,5.772e-07,0.8,0.92,0
0.041102,-0.011225,0.029934,0.00018277,0.009035,0.00060328,0,0,0.054337,-0.023016,0,0.003137,0,0,0,0.029946,0.00017055,0.009035,1.1612,0.013051,0.026481,6.0589e-07,0.84,0.92,0
0.043291,-0.011556,0.030255,-4.952e-05,0.0090617,0.00061682,0,0,0.055103,-0.023689,0,0.0032075,0,0,0,0.030268,-6.2069e-05,0.0090617,1.1655,0.013089,0.026952,6.3088e-07,0.88,0.92,0
0.045511,-0.011766,0.030515,-0.00024919,0.0090798,0.00049791,0,0,0.055732,-0.024255,0,0.0025891,0,0,0,0.030523,-0.00025725,0.0090798,0.92697,0.013115,0.027335,6.5136e-07,0.92,0.92,0
0.04775,-0.011882,0.030676,-0.00036971,0.009092,0.00027474,0,0,0.056119,-0.0246,0,0.0014286,0,0,0,0.030679,-0.00037214,0.009092,0.50697,0.013133,0.027565,6.6391e-07,0.96,0.92,0
0.05,-0.011918,0.03073,-0.00040937,0.0090961,-0.00017583,0,0,0.056247,-0.024714,0,-0.00091429,0,0,0,0.030731,-0.00041037,0.0090961,-0.3235,0.013139,0.027642,6.6813e-07,1,0.92,0
0,0,0.036272,0.015545,0.015545,-0.011756,0,0,0.05389,4.3368e-18,0,-0.061134,0,0,0,0.041581,0.010237,0.015545,-24.302,0.022454,0.029056,1.1194e-06,0,0.96,0
0.0021556,-0.0024454,0.03325,0.0037228,0.011092,-0.0074962,0,0,0.05761,-0.019159,0,-0.03898,0,0,0,0.035044,0.0019287,0.011092,-13.46,0.016021,0.029616,9.1629e-07,0.04,0.96,0
0.0046088,-0.0046261,0.033513,0.0029306,0.010933,-0.0045736,0,0,0.058707,-0.020806,0,-0.023783,0,0,0,0.034182,0.0022613,0.010933,-8.326,0.015792,0.028589,8.3834e-07,0.08,0.96,0
0.0068522,-0.0060865,0.030433,0.0016746,0.0096321,-0.0023585,0,0,0.054081,-0.020689,0,-0.012264,0,0,0,0.030625,0.0014825,0.0096321,-4.6574,0.013913,0.026042,6.166e-07,0.12,0.96,0
0.0089353,-0.0070333,0.028393,0.0010574,0.008835,-0.001143,0,0,0.05085,-0.020222,0,-0.0059436,0,0,0,0.02844,0.0010096,0.008835,-2.3902,0.012762,0.024475,5.0165e-07,0.16,0.96,0
0.01092,-0.0075661,0.027245,0.00069884,0.0083831,-0.00037388,0,0,0.049041,-0.019979,0,-0.0019442,0,0,0,0.02725,0.00069357,0.0083831,-0.80675,0.012109,0.023668,4.4651e-07,0.2,0.96,0
0.012859,-0.0077937,0.026651,0.00032971,0.0080942,7.7509e-05,0,0,0.048247,-0.020188,0,0.00040304,0,0,0,0.026651,0.00032948,0.0080942,0.16872,0.011692,0.023425,4.2396e-07,0.24,0.96,0
0.01478,-0.0078348,0.026336,-9.8241e-05,0.0078713,0.00017116,0,0,0.048008,-0.020721,0,0.00089001,0,0,0,0.026337,-9.9349e-05,0.0078713,0.37096,0.01137,0.023488,4.1639e-07,0.28,0.96,0
0.016699,-0.0078144,0.026117,-0.00034678,0.0077309,2.0563e-06,0,0,0.047803,-0.021002,0,1.0693e-05,0,0,0,0.026117,-0.00034678,0.0077309,0.0044521,0.011167,0.02349,4.1007e-07,0.32,0.96,0
0.018604,-0.0078197,0.025864,-0.00026775,0.007679,-0.00025161,0,0,0.047282,-0.020661,0,-0.0013084,0,0,0,0.025867,-0.00027017,0.007679,-0.55159,0.011092,0.023207,3.9725e-07,0.36,0.96,0
0.020482,-0.0078683,0.025526,3.2679e-05,0.0076677,-0.00032902,0,0,0.046433,-0.019851,0,-0.0017109,0,0,0,0.025531,2.8433e-05,0.0076677,-0.7393,0.011076,0.022669,3.7732e-07,0.4,0.96,0
0.022319,-0.0079218,0.025342,0.00044879,0.0077371,-0.00017005,0,0,0.045772,-0.01895,0,-0.00088426,0,0,0,0.025343,0.00044763,0.0077371,-0.39138,0.011176,0.022168,3.6238e-07,0.44,0.96,0
0.024143,-0.007961,0.02513,0.00023594,0.0076099,0.00014451,0,0,0.045553,-0.019172,0,0.00075143,0,0,0,0.025131,0.0002351,0.0076099,0.33257,0.010992,0.022149,3.5667e-07,0.48,0.96,0
0.025963,-0.0080349,0.025126,6.8912e-05,0.0075585,0.00025635,0,0,0.045676,-0.019473,0,0.001333,0,0,0,0.025129,6.6289e-05,0.0075585,0.5861,0.010918,0.022282,3.5919e-07,0.52,0.96,0
0.027797,-0.008203,0.025478,0.00032577,0.0077412,0.00045994,0,0,0.046116,-0.01928,0,0.0023917,0,0,0,0.025486,0.00031737,0.0077412,1.0473,0.011182,0.0224,3.7074e-07,0.56,0.96,0
0.029652,-0.0084928,0.025947,0.00013519,0.0078246,0.00061188,0,0,0.047118,-0.019992,0,0.0031818,0,0,0,0.025961,0.00012069,0.0078246,1.3572,0.011302,0.022978,3.9522e-07,0.6,0.96,0
0.031567,-0.0089423,0.026385,-0.00048592,0.0077696,0.00051128,0,0,0.048399,-0.021464,0,0.0026587,0,0,0,0.026394,-0.00049564,0.0077696,1.0897,0.011223,0.023856,4.2567e-07,0.64,0.96,0
0.033524,-0.0095714,0.026979,-0.00035979,0.0079859,0.00012968,0,0,0.049383,-0.021699,0,0.00067435,0,0,0,0.02698,-0.0003604,0.0079859,0.27177,0.011535,0.024269,4.5213e-07,0.68,0.96,0
0.035518,-0.010307,0.027475,7.0676e-05,0.0082636,4.7761e-05,0,0,0.049949,-0.021302,0,0.00024836,0,0,0,0.027475,7.0593e-05,0.0082636,0.099858,0.011936,0.024364,4.6951e-07,0.72,0.96,0
0.03752,-0.011023,0.027725,6.5897e-05,0.0083372,4.7121e-05,0,0,0.050408,-0.021506,0,0.00024503,0,0,0,0.027725,6.5817e-05,0.0083372,0.097612,0.012043,0.02459,4.8256e-07,0.76,0.96,0
0.03955,-0.011638,0.028079,0.00015656,0.0084707,0.00016087,0,0,0.050982,-0.021617,0,0.00083651,0,0,0,0.02808,0.00015563,0.0084707,0.33008,0.012235,0.024834,4.9962e-07,0.8,0.96,0
0.041599,-0.012124,0.02834,0.00010343,0.0085331,0.00026478,0,0,0.051498,-0.021917,0,0.0013768,0,0,0,0.028343,0.00010095,0.0085331,0.53721,0.012326,0.025111,5.1487e-07,0.84,0.96,0
0.04367,-0.012474,0.028611,3.4884e-06,0.0085844,0.00031223,0,0,0.05207,-0.02231,0,0.0016236,0,0,0,0.028615,8.1202e-08,0.0085844,0.62523,0.0124,0.025433,5.3188e-07,0.88,0.96,0
0.045764,-0.012702,0.02885,-0.0001015,0.0086245,0.00027005,0,0,0.052586,-0.022688,0,0.0014042,0,0,0,0.028852,-0.00010402,0.0086245,0.53437,0.012458,0.025728,5.4735e-07,0.92,0.96,0
0.047877,-0.012829,0.029019,-0.00016897,0.0086551,0.00015459,0,0,0.052947,-0.022943,0,0.0008039,0,0,0,0.02902,-0.00016979,0.0086551,0.30346,0.012502,0.025929,5.5827e-07,0.96,0.96,0
0.05,-0.01287,0.02908,-0.00019137,0.0086666,-0.00019434,0,0,0.053075,-0.023031,0,-0.0010106,0,0,0,0.029081,-0.00019266,0.0086666,-0.38039,0.012518,0.026002,5.6227e-07,1,0.96,0
0,0,0.058555,0.025095,0.025095,-0.016982,0,0,0.086996,-6.9389e-18,0,-0.088308,0,0,0,0.065664,0.017986,0.025095,-22.714,0.036248,0.044551,4.1543e-06,0,1,0
0.0034799,-0.0035323,0.041442,0.0028302,0.013282,-0.0068647,0,0,0.073218,-0.027174,0,-0.035696,0,0,0,0.042627,0.0016461,0.013282,-9.7869,0.019185,0.036578,1.6828e-06,0.04,1,0
0.0058574,-0.0055042,0.029918,0.00076063,0.0092036,-0.0021348,0,0,0.053857,-0.021952,0,-0.011101,0,0,0,0.030073,0.00060516,0.0092036,-4.1653,0.013294,0.026247,6.0385e-07,0.08,1,0
0.0077884,-0.0069175,0.025169,-0.00062932,0.0073619,-0.0010737,0,0,0.046298,-0.020777,0,-0.0055835,0,0,0,0.025214,-0.00067393,0.0073619,-2.3792,0.010634,0.02295,3.7402e-07,0.12,1,0
0.0095613,-0.0078234,0.023742,-0.00067728,0.0069195,-0.00042376,0,0,0.043739,-0.019752,0,-0.0022035,0,0,0,0.023749,-0.00068463,0.0069195,-0.99387,0.0099948,0.021658,3.1322e-07,0.16,1,0
0.011288,-0.0083458,0.023609,-0.00059113,0.0069055,-5.8593e-05,0,0,0.04343,-0.019491,0,-0.00030468,0,0,0,0.02361,-0.00059127,0.0069055,-0.13872,0.0099746,0.021458,3.0657e-07,0.2,1,0
0.013036,-0.0085825,0.024226,-0.0004533,0.0071317,0.0001362,0,0,0.044444,-0.019721,0,0.00070822,0,0,0,0.024226,-0.00045405,0.0071317,0.31619,0.010301,0.021896,3.2915e-07,0.24,1,0
0.014843,-0.0086435,0.025073,-0.00036264,0.0074132,0.00017358,0,0,0.045916,-0.020217,0,0.00090262,0,0,0,0.025074,-0.00036383,0.0074132,0.39098,0.010708,0.022578,3.6337e-07,0.28,1,0
0.016709,-0.0086366,0.025715,-0.00027282,0.0076326,6.1693e-05,0,0,0.047014,-0.020554,0,0.0003208,0,0,0,0.025715,-0.00027297,0.0076326,0.13601,0.011025,0.023074,3.9036e-07,0.32,1,0
0.018604,-0.0086375,0.025913,-0.00012795,0.0077354,-7.0502e-05,0,0,0.047261,-0.020445,0,-0.00036661,0,0,0,0.025913,-0.00012815,0.0077354,-0.15512,0.011173,0.023134,3.9709e-07,0.36,1,0
0.02049,-0.008666,0.025838,0.00011645,0.0077864,-0.00012492,0,0,0.046935,-0.019942,0,-0.0006496,0,0,0,0.025839,0.00011584,0.0077864,-0.27826,0.011247,0.022874,3.8973e-07,0.4,1,0
0.022359,-0.0087058,0.025814,0.00029396,0.0078324,-1.1618e-05,0,0,0.046752,-0.0196,0,-6.0411e-05,0,0,0,0.025814,0.00029396,0.0078324,-0.026083,0.011314,0.02271,3.8567e-07,0.44,1,0
0.02423,-0.0087511,0.026094,0.00032985,0.0079272,9.6636e-05,0,0,0.047234,-0.019753,0,0.00050251,0,0,0,0.026094,0.00032949,0.0079272,0.2149,0.01145,0.02293,3.9783e-07,0.48,1,0
0.026138,-0.0088388,0.026686,0.00039412,0.008124,0.00019367,0,0,0.048261,-0.020098,0,0.0010071,0,0,0,0.026687,0.00039269,0.008124,0.42202,0.011735,0.023407,4.2458e-07,0.52,1,0
0.028091,-0.0090199,0.027431,0.00053534,0.0083899,0.00022195,0,0,0.049507,-0.020422,0,0.0011542,0,0,0,0.027433,0.00053351,0.0083899,0.47279,0.012119,0.023958,4.5871e-07,0.56,1,0
0.030098,-0.0093334,0.028028,0.00046581,0.0085482,0.00025102,0,0,0.050648,-0.021014,0,0.0013053,0,0,0,0.02803,0.00046353,0.0085482,0.52175,0.012347,0.024545,4.9096e-07,0.6,1,0
0.032143,-0.0098073,0.028233,0.00021773,0.0085352,0.00011226,0,0,0.051214,-0.021625,0,0.00058377,0,0,0,0.028233,0.00021728,0.0085352,0.22959,0.012329,0.024921,5.0665e-07,0.64,1,0
0.034195,-0.010438,0.027951,6.9901e-05,0.0084063,-2.3462e-05,0,0,0.050816,-0.021675,0,-0.000122,0,0,0,0.027951,6.9881e-05,0.0084063,-0.048214,0.012142,0.024788,4.944e-07,0.68,1,0
0.036208,-0.011159,0.027341,5.7606e-06,0.0082041,-0.00011527,0,0,0.049756,-0.021316,0,-0.00059942,0,0,0,0.027342,5.2745e-06,0.0082041,-0.24161,0.01185,0.024298,4.6391e-07,0.72,1,0
0.038176,-0.011867,0.026759,-0.00012769,0.0079894,-3.706e-05,0,0,0.048801,-0.021104,0,-0.00019271,0,0,0,0.026759,-0.00012774,0.0079894,-0.078975,0.01154,0.023886,4.3718e-07,0.76,1,0
0.040112,-0.012486,0.026461,-0.00030622,0.0078465,3.0402e-05,0,0,0.048398,-0.021197,0,0.00015809,0,0,0,0.026461,-0.00030625,0.0078465,0.065075,0.011334,0.023764,4.2577e-07,0.8,1,0
0.042048,-0.012979,0.026544,-0.00036499,0.0078536,0.00010497,0,0,0.048594,-0.021368,0,0.00054585,0,0,0,0.026544,-0.0003654,0.0078536,0.22351,0.011344,0.023885,4.3075e-07,0.84,1,0
0.044,-0.013341,0.026817,-0.00041511,0.0079207,0.00013587,0,0,0.049131,-0.021673,0,0.00070654,0,0,0,0.026818,-0.00041579,0.0079207,0.28586,0.011441,0.024169,4.4502e-07,0.88,1,0
0.045978,-0.013581,0.027162,-0.00043526,0.008018,0.00012343,0,0,0.049774,-0.021979,0,0.00064185,0,0,0,0.027162,-0.00043581,0.008018,0.25626,0.011582,0.024491,4.6264e-07,0.92,1,0
0.047982,-0.013717,0.027433,-0.0004421,0.0080971,7.1996e-05,0,0,0.050272,-0.022202,0,0.00037438,0,0,0,0.027433,-0.00044229,0.0080971,0.14798,0.011696,0.024737,4.7663e-07,0.96,1,0
0.05,-0.013761,0.027534,-0.00044247,0.0081276,-0.00020977,0,0,0.050458,-0.022282,0,-0.0010908,0,0,0,0.027536,-0.00044405,0.0081276,-0.42957,0.01174,0.02483,4.8204e-07,1,1,0
