"Displacements:0","Displacements:1","Stress/Strain:0","Stress/Strain:1","Stress/Strain:2","Stress/Strain:3","Stress/Strain:4","Stress/Strain:5","Stress/Strain:6","Stress/Strain:7","Stress/Strain:8","Stress/Strain:9","Stress/Strain:10","Stress/Strain:11","Stress/Strain:12","Principal Stress:0","Principal Stress:1","Principal Stress:2","Principal Stress:3","Principal Stress:4","Principal Stress:5","Principal Stress:6","nodes:0","nodes:1","nodes:2"
0,0,0.050345,0.021577,0.021577,0.013806,0,0,0.074799,0,0,0.071793,0,0,0,0.055899,0.016023,0.021577,21.913,0.031166,0.03741,2.4903e-06,0,0,0
0.002992,0.0028717,0.036356,0.0022882,0.011593,0.0054306,0,0,0.064384,-0.024193,0,0.028239,0,0,0,0.037201,0.0014435,0.011593,8.8413,0.016746,0.031917,1.1183e-06,0.04,0,0
0.0051507,0.0044428,0.027852,0.00077416,0.0085878,0.0014877,0,0,0.050086,-0.020315,0,0.0077358,0,0,0,0.027933,0.00069267,0.0085878,3.1353,0.012405,0.024276,4.813e-07,0.08,0,0
0.0069989,0.0056274,0.024625,-0.0003125,0.0072937,0.00068176,0,0,0.045061,-0.019776,0,0.0035452,0,0,0,0.024643,-0.00033112,0.0072937,1.5649,0.010535,0.022169,3.4458e-07,0.12,0,0
0.0087556,0.0064865,0.023826,-0.00037696,0.0070346,0.00022445,0,0,0.043657,-0.01927,0,0.0011671,0,0,0,0.023828,-0.00037904,0.0070346,0.53129,0.010161,0.021482,3.1227e-07,0.16,0,0
0.010491,0.0071256,0.023773,-0.00037404,0.0070197,1.909e-05,0,0,0.043559,-0.019224,0,9.927e-05,0,0,0,0.023773,-0.00037406,0.0070197,0.045297,0.01014,0.021429,3.1007e-07,0.2,0,0
0.01224,0.0076075,0.02406,-0.00032592,0.0071201,-7.6658e-05,0,0,0.044043,-0.01936,0,-0.00039862,0,0,0,0.02406,-0.00032616,0.0071201,-0.18011,0.010285,0.021646,3.2071e-07,0.24,0,0
0.014015,0.0079806,0.024445,-0.0002741,0.0072514,-0.00010752,0,0,0.044704,-0.019566,0,-0.0005591,0,0,0,0.024446,-0.00027456,0.0072514,-0.24921,0.010474,0.021948,3.3558e-07,0.28,0,0
0.015817,0.008278,0.024817,-0.00022503,0.0073776,-0.00010762,0,0,0.045343,-0.019767,0,-0.00055962,0,0,0,0.024817,-0.00022549,0.0073776,-0.24622,0.010656,0.022239,3.5034e-07,0.32,0,0
0.017642,0.0085197,0.025136,-0.00018302,0.0074858,-0.00010029,0,0,0.045889,-0.019939,0,-0.00052149,0,0,0,0.025136,-0.00018342,0.0074858,-0.22694,0.010813,0.022488,3.6332e-07,0.36,0,0
0.019488,0.0087154,0.025413,-0.00014985,0.0075788,-0.00010001,0,0,0.046368,-0.020095,0,-0.00052004,0,0,0,0.025413,-0.00015024,0.0075788,-0.22415,0.010947,0.022708,3.7493e-07,0.4,0,0
0.021352,0.0088681,0.025686,-0.00012589,0.0076679,-0.00011178,0,0,0.046846,-0.020264,0,-0.00058124,0,0,0,0.025686,-0.00012637,0.0076679,-0.24811,0.011076,0.022931,3.8674e-07,0.44,0,0
0.023235,0.0089782,0.025993,-0.00010963,0.007765,-0.00013289,0,0,0.047393,-0.020474,0,-0.00069102,0,0,0,0.025994,-0.00011031,0.007765,-0.29168,0.011216,0.023192,4.0052e-07,0.48,0,0
0.025143,0.009047,0.026358,-9.8218e-05,0.007878,-0.00015623,0,0,0.048048,-0.020738,0,-0.00081239,0,0,0,0.026359,-9.9141e-05,0.007878,-0.33833,0.011379,0.023508,4.1742e-07,0.52,0,0
0.027079,0.0090782,0.02678,-8.8483e-05,0.0080076,-0.00017415,0,0,0.048809,-0.02105,0,-0.00090557,0,0,0,0.026782,-8.9611e-05,0.0080076,-0.37134,0.011567,0.023876,4.3763e-07,0.56,0,0
0.029048,0.0090787,0.02724,-7.8154e-05,0.0081485,-0.00018116,0,0,0.049638,-0.021389,0,-0.00094203,0,0,0,0.027241,-7.9355e-05,0.0081485,-0.37993,0.01177,0.024276,4.6034e-07,0.6,0,0
0.03105,0.009057,0.027704,-6.6303e-05,0.0082913,-0.00017519,0,0,0.050473,-0.02173,0,-0.00091098,0,0,0,0.027705,-6.7409e-05,0.0082913,-0.36143,0.011976,0.024679,4.8401e-07,0.64,0,0
0.033086,0.0090225,0.028138,-5.3226e-05,0.0084254,-0.0001574,0,0,0.051253,-0.022045,0,-0.00081849,0,0,0,0.028139,-5.4105e-05,0.0084254,-0.31989,0.01217,0.025054,5.0683e-07,0.68,0,0
0.035151,0.0089834,0.028514,-3.9898e-05,0.0085421,-0.00013127,0,0,0.051926,-0.022313,0,-0.00068258,0,0,0,0.028514,-4.0502e-05,0.0085421,-0.26339,0.012339,0.025376,5.271e-07,0.72,0,0
0.03724,0.0089463,0.028814,-2.7461e-05,0.0086359,-0.00010129,0,0,0.052462,-0.022525,0,-0.00052671,0,0,0,0.028814,-2.7817e-05,0.0086359,-0.20122,0.012474,0.025633,5.4363e-07,0.76,0,0
0.039348,0.0089152,0.029034,-1.6821e-05,0.008705,-7.1874e-05,0,0,0.052854,-0.022677,0,-0.00037374,0,0,0,0.029034,-1.6998e-05,0.008705,-0.14175,0.012574,0.025819,5.5594e-07,0.8,0,0
0.041468,0.0088919,0.02918,-8.4675e-06,0.0087514,-4.6436e-05,0,0,0.053114,-0.022776,0,-0.00024147,0,0,0,0.02918,-8.5414e-06,0.0087514,-0.091152,0.012641,0.025943,5.642e-07,0.84,0,0
0.043597,0.0088762,0.029267,-2.4683e-06,0.0087793,-2.6913e-05,0,0,0.053268,-0.022833,0,-0.00013995,0,0,0,0.029267,-2.493e-06,0.0087793,-0.052683,0.012681,0.026015,5.6914e-07,0.88,0,0
0.045729,0.0088668,0.029312,1.4141e-06,0.008794,-1.3618e-05,0,0,0.053347,-0.022861,0,-7.0813e-05,0,0,0,0.029312,1.4078e-06,0.008794,-0.02662,0.012703,0.026052,5.717e-07,0.92,0,0
0.047864,0.008862,0.029332,3.5391e-06,0.0088006,-5.3958e-06,0,0,0.053381,-0.022872,0,-2.8058e-05,0,0,0,0.029332,3.5381e-06,0.0088006,-0.010541,0.012712,0.026068,5.728e-07,0.96,0,0
0.05,0.0088606,0.029337,4.2088e-06,0.0088023,-6.8598e-06,0,0,0.05339,-0.022875,0,-3.5671e-05,0,0,0,0.029337,4.2072e-06,0.0088023,-0.013399,0.012714,0.026072,5.7308e-07,1,0,0
0,0,0.031973,0.013703,0.013703,0.0091537,0,0,0.047503,2.1684e-18,0,0.047599,0,0,0,0.03577,0.0099059,0.013703,22.529,0.019793,0.024191,6.6706e-07,0,0.04,0
0.0019001,0.001904,0.029344,0.0030477,0.0097175,0.0056166,0,0,0.051028,-0.017341,0,0.029206,0,0,0,0.030493,0.0018984,0.0097175,11.566,0.014036,0.025597,5.9817e-07,0.04,0.04,0
0.0040823,0.0036301,0.029983,0.0023532,0.0097008,0.0032365,0,0,0.052733,-0.019104,0,0.01683,0,0,0,0.030357,0.0019792,0.0097008,6.5927,0.014012,0.025412,5.8794e-07,0.08,0.04,0
0.0061188,0.0048364,0.027814,0.0012618,0.0087226,0.0014893,0,0,0.049637,-0.019398,0,0.0077441,0,0,0,0.027897,0.0011785,0.0087226,3.2003,0.012599,0.023858,4.6962e-07,0.12,0.04,0
0.0080532,0.0057157,0.02651,0.00070039,0.0081631,0.00061754,0,0,0.047702,-0.019403,0,0.0032112,0,0,0,0.026525,0.00068562,0.0081631,1.3699,0.011791,0.023029,4.116e-07,0.16,0.04,0
0.0099349,0.0063566,0.025868,0.00036389,0.0078695,0.00014056,0,0,0.046795,-0.019515,0,0.00073091,0,0,0,0.025868,0.00036312,0.0078695,0.31577,0.011367,0.022703,3.8697e-07,0.2,0.04,0
0.011797,0.0068331,0.025634,0.00015904,0.0077378,-9.2941e-05,0,0,0.046529,-0.019705,0,-0.00048329,0,0,0,0.025634,0.0001587,0.0077378,-0.20903,0.011177,0.022657,3.7983e-07,0.24,0.04,0
0.013657,0.007198,0.025622,4.4121e-05,0.0076999,-0.00018582,0,0,0.046598,-0.019905,0,-0.00096629,0,0,0,0.025624,4.2771e-05,0.0076999,-0.41622,0.011122,0.022741,3.8124e-07,0.28,0.04,0
0.015525,0.0074873,0.025723,-2.2199e-06,0.0077163,-0.00020717,0,0,0.046818,-0.020068,0,-0.0010773,0,0,0,0.025725,-3.8882e-06,0.0077163,-0.46137,0.011146,0.022868,3.8653e-07,0.32,0.04,0
0.017403,0.0077222,0.02588,-6.3684e-07,0.0077637,-0.00020784,0,0,0.047101,-0.020187,0,-0.0010808,0,0,0,0.025881,-2.3059e-06,0.0077637,-0.4601,0.011214,0.023006,3.9359e-07,0.36,0.04,0
0.019293,0.0079117,0.026071,2.5019e-05,0.0078288,-0.0002191,0,0,0.04743,-0.02029,0,-0.0011393,0,0,0,0.026073,2.3176e-05,0.0078288,-0.48192,0.011308,0.023156,4.0198e-07,0.4,0.04,0
0.021197,0.0080576,0.026297,5.1833e-05,0.0079046,-0.00025222,0,0,0.04782,-0.020417,0,-0.0013116,0,0,0,0.026299,4.941e-05,0.0079046,-0.55056,0.011418,0.023336,4.1211e-07,0.44,0.04,0
0.023118,0.0081592,0.026563,6.4114e-05,0.0079881,-0.00030182,0,0,0.048295,-0.020602,0,-0.0015695,0,0,0,0.026566,6.0677e-05,0.0079881,-0.65249,0.011538,0.023564,4.246e-07,0.48,0.04,0
0.025061,0.0082174,0.026871,5.6529e-05,0.0080782,-0.00035345,0,0,0.048861,-0.020856,0,-0.0018379,0,0,0,0.026875,5.1871e-05,0.0080782,-0.75506,0.011669,0.023846,4.3975e-07,0.52,0.04,0
0.027027,0.0082362,0.027213,3.2345e-05,0.0081736,-0.00039151,0,0,0.049502,-0.021167,0,-0.0020359,0,0,0,0.027218,2.6706e-05,0.0081736,-0.82507,0.011806,0.024171,4.5728e-07,0.56,0.04,0
0.029021,0.0082231,0.027574,-4.8149e-07,0.008272,-0.00040516,0,0,0.050184,-0.021508,0,-0.0021068,0,0,0,0.02758,-6.4333e-06,0.008272,-0.84163,0.011948,0.024518,4.7635e-07,0.6,0.04,0
0.031042,0.0081878,0.027932,-3.3292e-05,0.0083696,-0.00039056,0,0,0.050862,-0.021848,0,-0.0020309,0,0,0,0.027938,-3.8746e-05,0.0083696,-0.79999,0.012089,0.024862,4.9574e-07,0.64,0.04,0
0.03309,0.0081407,0.028267,-5.92e-05,0.0084623,-0.00035062,0,0,0.051492,-0.022156,0,-0.0018232,0,0,0,0.028271,-6.3539e-05,0.0084623,-0.70907,0.012223,0.025179,5.1419e-07,0.68,0.04,0
0.035161,0.0080909,0.02856,-7.4292e-05,0.0085459,-0.00029289,0,0,0.052038,-0.022412,0,-0.001523,0,0,0,0.028563,-7.7288e-05,0.0085459,-0.58598,0.012344,0.025449,5.3056e-07,0.72,0.04,0
0.037253,0.0080453,0.028802,-7.7707e-05,0.0086173,-0.00022706,0,0,0.052481,-0.022607,0,-0.0011807,0,0,0,0.028804,-7.9492e-05,0.0086173,-0.45043,0.012447,0.025665,5.4411e-07,0.76,0.04,0
0.03936,0.0080082,0.028989,-7.1096e-05,0.0086752,-0.00016248,0,0,0.052815,-0.02274,0,-0.00084492,0,0,0,0.028989,-7.2005e-05,0.0086752,-0.32035,0.012531,0.025824,5.5452e-07,0.8,0.04,0
0.041478,0.0079809,0.029122,-5.7764e-05,0.0087194,-0.00010642,0,0,0.053048,-0.022821,0,-0.0005534,0,0,0,0.029123,-5.8152e-05,0.0087194,-0.20896,0.012595,0.025931,5.6192e-07,0.84,0.04,0
0.043604,0.0079629,0.029212,-4.1742e-05,0.0087509,-6.2973e-05,0,0,0.053198,-0.022861,0,-0.00032746,0,0,0,0.029212,-4.1877e-05,0.0087509,-0.12334,0.01264,0.025997,5.6674e-07,0.88,0.04,0
0.045734,0.0079523,0.029266,-2.6978e-05,0.0087716,-3.2782e-05,0,0,0.053284,-0.022876,0,-0.00017047,0,0,0,0.029266,-2.7014e-05,0.0087716,-0.064121,0.01267,0.026033,5.6957e-07,0.92,0.04,0
0.047866,0.0079471,0.029294,-1.6711e-05,0.0087831,-1.3385e-05,0,0,0.053327,-0.02288,0,-6.9603e-05,0,0,0,0.029294,-1.6717e-05,0.0087831,-0.026166,0.012687,0.02605,5.71e-07,0.96,0.04,0
0.05,0.0079456,0.029302,-1.3046e-05,0.0087868,-7.4008e-06,0,0,0.05334,-0.02288,0,-3.8484e-05,0,0,0,0.029302,-1.3048e-05,0.0087868,-0.014464,0.012692,0.026055,5.7142e-07,1,0.04,0
0,0,0.028577,0.012247,0.012247,0.0071366,0,0,0.042457,0,0,0.03711,0,0,0,0.031256,0.009568,0.012247,20.578,0.017691,0.02048,4.1586e-07,0,0.08,0
0.0016983,0.0014844,0.027598,0.007269,0.01046,0.0062873,0,0,0.044559,-0.0082968,0,0.032694,0,0,0,0.029385,0.0054816,0.01046,15.87,0.015109,0.021844,4.4303e-07,0.04,0.08,0
0.0035647,0.0029145,0.027914,0.0036825,0.009479,0.0044377,0,0,0.047931,-0.015071,0,0.023076,0,0,0,0.028701,0.0028954,0.009479,10.058,0.013692,0.023225,4.7335e-07,0.08,0.08,0
0.0055328,0.0040756,0.02797,0.0023204,0.009087,0.0025999,0,0,0.049095,-0.017593,0,0.01352,0,0,0,0.02823,0.0020595,0.009087,5.7301,0.013126,0.02346,4.6807e-07,0.12,0.08,0
0.0074922,0.0049343,0.027378,0.0013875,0.0086298,0.0012587,0,0,0.048746,-0.01883,0,0.0065451,0,0,0,0.027439,0.0013267,0.0086298,2.7661,0.012465,0.023334,4.4355e-07,0.16,0.08,0
0.0094325,0.0055644,0.026896,0.00076975,0.0082997,0.00044421,0,0,0.04835,-0.019578,0,0.0023099,0,0,0,0.026904,0.0007622,0.0082997,0.97379,0.011988,0.023305,4.2826e-07,0.2,0.08,0
0.01136,0.0060311,0.026603,0.00036144,0.0080893,-4.4098e-06,0,0,0.048135,-0.020092,0,-2.2931e-05,0,0,0,0.026603,0.00036144,0.0080893,-0.0096284,0.011685,0.023357,4.2109e-07,0.24,0.08,0
0.013283,0.0063882,0.026467,0.00012308,0.0079771,-0.00021436,0,0,0.048074,-0.020421,0,-0.0011147,0,0,0,0.026469,0.00012134,0.0079771,-0.46617,0.011522,0.023429,4.189e-07,0.28,0.08,0
0.015206,0.0066726,0.02644,2.4055e-05,0.0079392,-0.00029642,0,0,0.048102,-0.020579,0,-0.0015414,0,0,0,0.026443,2.0729e-05,0.0079392,-0.64282,0.011468,0.023487,4.1939e-07,0.32,0.08,0
0.017132,0.0069048,0.026488,2.5962e-05,0.0079542,-0.000336,0,0,0.048188,-0.020613,0,-0.0017472,0,0,0,0.026492,2.1696e-05,0.0079542,-0.72735,0.011489,0.023529,4.2172e-07,0.36,0.08,0
0.019061,0.0070923,0.026598,7.834e-05,0.0080028,-0.00038786,0,0,0.048346,-0.020604,0,-0.0020169,0,0,0,0.026603,7.2669e-05,0.0080028,-0.83775,0.01156,0.023587,4.2616e-07,0.4,0.08,0
0.020999,0.0072347,0.026764,0.00013055,0.0080685,-0.00047065,0,0,0.048609,-0.020639,0,-0.0024474,0,0,0,0.026773,0.00012223,0.0080685,-1.0121,0.011654,0.023699,4.3349e-07,0.44,0.08,0
0.02295,0.00733,0.026987,0.0001494,0.0081408,-0.00057407,0,0,0.048999,-0.020778,0,-0.0029852,0,0,0,0.026999,0.00013712,0.0081408,-1.2249,0.011759,0.023888,4.4432e-07,0.48,0.08,0
0.024919,0.0073785,0.027257,0.00012526,0.0082146,-0.00067234,0,0,0.04951,-0.021032,0,-0.0034962,0,0,0,0.027273,0.00010861,0.0082146,-1.4187,0.011866,0.024154,4.5857e-07,0.52,0.08,0
0.026911,0.0073848,0.027561,6.7336e-05,0.0082884,-0.00073971,0,0,0.050108,-0.021375,0,-0.0038465,0,0,0,0.027581,4.7449e-05,0.0082884,-1.54,0.011972,0.024476,4.754e-07,0.56,0.08,0
0.028928,0.007358,0.027878,-6.7737e-06,0.0083614,-0.00075935,0,0,0.050743,-0.021757,0,-0.0039486,0,0,0,0.027899,-2.7437e-05,0.0083614,-1.5587,0.012078,0.024819,4.9347e-07,0.6,0.08,0
0.03097,0.0073092,0.028188,-7.8583e-05,0.0084328,-0.00072697,0,0,0.051363,-0.02213,0,-0.0037802,0,0,0,0.028207,-9.7267e-05,0.0084328,-1.4723,0.012181,0.025148,5.1133e-07,0.64,0.08,0
0.033037,0.00725,0.028472,-0.00013404,0.0085012,-0.0006494,0,0,0.051923,-0.022452,0,-0.0033769,0,0,0,0.028486,-0.00014877,0.0085012,-1.2998,0.01228,0.025438,5.2767e-07,0.68,0.08,0
0.035124,0.0071904,0.028715,-0.00016537,0.008565,-0.00054104,0,0,0.052391,-0.022699,0,-0.0028134,0,0,0,0.028725,-0.00017551,0.008565,-1.0729,0.012372,0.025672,5.4158e-07,0.72,0.08,0
0.037228,0.0071377,0.028912,-0.00017131,0.0086223,-0.00041939,0,0,0.052754,-0.022863,0,-0.0021808,0,0,0,0.028918,-0.00017736,0.0086223,-0.82599,0.012454,0.025845,5.5258e-07,0.76,0.08,0
0.039344,0.007096,0.029062,-0.00015578,0.0086717,-0.00030102,0,0,0.053013,-0.022951,0,-0.0015653,0,0,0,0.029065,-0.00015888,0.0086717,-0.59021,0.012526,0.02596,5.6062e-07,0.8,0.08,0
0.041469,0.0070663,0.029167,-0.0001261,0.0087123,-0.00019851,0,0,0.053183,-0.02298,0,-0.0010322,0,0,0,0.029168,-0.00012744,0.0087123,-0.38825,0.012585,0.026027,5.66e-07,0.84,0.08,0
0.043599,0.0070473,0.029237,-9.0962e-05,0.0087437,-0.00011883,0,0,0.053282,-0.02297,0,-0.0006179,0,0,0,0.029237,-9.1443e-05,0.0087437,-0.23214,0.01263,0.02606,5.6925e-07,0.88,0.08,0
0.045732,0.0070367,0.029278,-5.882e-05,0.0087658,-6.2866e-05,0,0,0.053332,-0.022944,0,-0.0003269,0,0,0,0.029278,-5.8954e-05,0.0087658,-0.12278,0.012662,0.02607,5.7099e-07,0.92,0.08,0
0.047866,0.0070316,0.0293,-3.6553e-05,0.008779,-2.6102e-05,0,0,0.053354,-0.02292,0,-0.00013573,0,0,0,0.0293,-3.6576e-05,0.008779,-0.05098,0.012681,0.026071,5.7177e-07,0.96,0.08,0
0.05,0.0070302,0.029306,-2.8618e-05,0.0087833,-6.871e-06,0,0,0.05336,-0.022911,0,-3.5729e-05,0,0,0,0.029306,-2.862e-05,0.0087833,-0.01342,0.012687,0.026071,5.7198e-07,1,0.08,0
0,0,0.026943,0.011547,0.011547,0.0059626,0,0,0.040029,-2.1684e-18,0,0.031005,0,0,0,0.028982,0.0095077,0.011547,18.88,0.016679,0.018539,3.1394e-07,0,0.12,0
0.0016012,0.0012402,0.026618,0.0086285,0.010574,0.0054969,0,0,0.041715,-0.0050583,0,0.028584,0,0,0,0.028165,0.0070818,0.010574,15.715,0.015274,0.019572,3.441e-07,0.04,0.12,0
0.0033372,0.0024245,0.027089,0.0058464,0.0098806,0.0044264,0,0,0.044742,-0.010489,0,0.023017,0,0,0,0.027974,0.004961,0.0098806,11.312,0.014272,0.02099,3.8847e-07,0.08,0.12,0
0.0051805,0.003429,0.027368,0.0037497,0.0093353,0.0029465,0,0,0.046885,-0.014523,0,0.015322,0,0,0,0.02773,0.0033876,0.0093353,7.0049,0.013484,0.021981,4.1378e-07,0.12,0.12,0
0.007088,0.0042094,0.027404,0.0023672,0.0089315,0.0016379,0,0,0.04803,-0.017067,0,0.0085173,0,0,0,0.027511,0.0022605,0.0089315,3.7271,0.012901,0.022664,4.2788e-07,0.16,0.12,0
0.0090229,0.0047904,0.027254,0.0013613,0.0085846,0.00070488,0,0,0.04854,-0.018781,0,0.0036654,0,0,0,0.027273,0.0013421,0.0085846,1.5582,0.0124,0.023175,4.3508e-07,0.2,0.12,0
0.010971,0.0052257,0.027099,0.00067132,0.0083312,0.00014067,0,0,0.048797,-0.019916,0,0.00073149,0,0,0,0.0271,0.00067057,0.0083312,0.30496,0.012034,0.023553,4.3953e-07,0.24,0.12,0
0.012927,0.0055643,0.026989,0.00025659,0.0081738,-0.00015676,0,0,0.04892,-0.020585,0,-0.00081512,0,0,0,0.02699,0.00025568,0.0081738,-0.33595,0.011807,0.023785,4.4177e-07,0.28,0.12,0
0.014885,0.005841,0.026934,8.1237e-05,0.0081047,-0.00030001,0,0,0.048957,-0.020861,0,-0.0015601,0,0,0,0.026938,7.7886e-05,0.0081047,-0.64003,0.011707,0.023881,4.4236e-07,0.32,0.12,0
0.016843,0.0060731,0.026938,8.8156e-05,0.0081078,-0.0003939,0,0,0.048958,-0.020851,0,-0.0020483,0,0,0,0.026944,8.2378e-05,0.0081078,-0.84032,0.011711,0.023882,4.4258e-07,0.36,0.12,0
0.018801,0.0062634,0.027005,0.00018504,0.0081569,-0.00050614,0,0,0.049004,-0.020727,0,-0.0026319,0,0,0,0.027014,0.00017549,0.0081569,-1.0808,0.011782,0.02387,4.4438e-07,0.4,0.12,0
0.020764,0.0064065,0.027139,0.00027394,0.0082239,-0.00065779,0,0,0.04918,-0.02067,0,-0.0034205,0,0,0,0.027155,0.00025784,0.0082239,-1.4018,0.011879,0.02393,4.4991e-07,0.44,0.12,0
0.022736,0.006497,0.027342,0.00029389,0.0082906,-0.00082584,0,0,0.049532,-0.020792,0,-0.0042944,0,0,0,0.027367,0.0002687,0.0082906,-1.7472,0.011975,0.02411,4.6034e-07,0.48,0.12,0
0.024726,0.0065349,0.027602,0.00023473,0.0083509,-0.00097243,0,0,0.050052,-0.021102,0,-0.0050566,0,0,0,0.027636,0.00020022,0.0083509,-2.0325,0.012062,0.024404,4.754e-07,0.52,0.12,0
0.02674,0.0065262,0.027897,0.00011672,0.008404,-0.0010632,0,0,0.050681,-0.021547,0,-0.0055285,0,0,0,0.027937,7.6093e-05,0.008404,-2.1885,0.012139,0.02477,4.9354e-07,0.56,0.12,0
0.028781,0.0064825,0.028201,-2.5558e-05,0.0084525,-0.0010801,0,0,0.051345,-0.022043,0,-0.0056164,0,0,0,0.028242,-6.6827e-05,0.0084525,-2.1882,0.012209,0.025155,5.1266e-07,0.6,0.12,0
0.030848,0.0064175,0.028488,-0.00015952,0.0084987,-0.001022,0,0,0.051973,-0.022511,0,-0.0053144,0,0,0,0.028525,-0.00019594,0.0084987,-2.0405,0.012276,0.02551,5.3074e-07,0.64,0.12,0
0.032938,0.0063446,0.028741,-0.00026022,0.0085443,-0.00090222,0,0,0.052512,-0.022892,0,-0.0046915,0,0,0,0.028769,-0.00028827,0.0085443,-1.7801,0.012342,0.025801,5.4629e-07,0.68,0.12,0
0.035049,0.006275,0.028947,-0.0003148,0.0085897,-0.00074286,0,0,0.05293,-0.023152,0,-0.0038629,0,0,0,0.028966,-0.00033365,0.0085897,-1.4533,0.012407,0.026013,5.5846e-07,0.72,0.12,0
0.037173,0.0062163,0.029103,-0.00032208,0.0086343,-0.00056896,0,0,0.053219,-0.023287,0,-0.0029586,0,0,0,0.029114,-0.00033307,0.0086343,-1.1073,0.012472,0.026144,5.6702e-07,0.76,0.12,0
0.039306,0.0061721,0.029212,-0.00029016,0.0086764,-0.00040315,0,0,0.053392,-0.023313,0,-0.0020964,0,0,0,0.029217,-0.00029567,0.0086764,-0.78277,0.012533,0.026205,5.7227e-07,0.8,0.12,0
0.041444,0.0061425,0.02928,-0.00023293,0.0087142,-0.000262,0,0,0.053472,-0.023262,0,-0.0013624,0,0,0,0.029283,-0.00023525,0.0087142,-0.50859,0.012587,0.026215,5.7487e-07,0.84,0.12,0
0.043584,0.0061253,0.029319,-0.00016651,0.0087457,-0.00015412,0,0,0.05349,-0.023172,0,-0.0008014,0,0,0,0.02932,-0.00016731,0.0087457,-0.29947,0.012633,0.026194,5.7565e-07,0.88,0.12,0
0.045723,0.0061168,0.029338,-0.00010632,0.0087694,-7.9892e-05,0,0,0.053477,-0.023077,0,-0.00041544,0,0,0,0.029338,-0.00010653,0.0087694,-0.15546,0.012667,0.026161,5.7546e-07,0.92,0.12,0
0.047862,0.0061135,0.029345,-6.4823e-05,0.008784,-3.2538e-05,0,0,0.053458,-0.023007,0,-0.00016919,0,0,0,0.029345,-6.4859e-05,0.008784,-0.063389,0.012688,0.026134,5.7501e-07,0.96,0.12,0
0.05,0.0061127,0.029347,-5.0068e-05,0.008789,-3.8053e-06,0,0,0.05345,-0.022982,0,-1.9787e-05,0,0,0,0.029347,-5.0068e-05,0.008789,-0.0074167,0.012695,0.026124,5.7481e-07,1,0.12,0
0,0,0.026258,0.011254,0.011254,0.0051911,0,0,0.039012,-3.2526e-19,0,0.026994,0,0,0,0.027879,0.0096328,0.011254,17.34,0.016255,0.017492,2.6696e-07,0,0.16,0
0.0015605,0.0010797,0.026119,0.0093837,0.010651,0.0048714,0,0,0.040217,-0.0032941,0,0.025331,0,0,0,0.027433,0.008069,0.010651,15.104,0.015384,0.018211,2.893e-07,0.04,0.16,0
0.0032173,0.0020754,0.026558,0.0072698,0.010148,0.0040034,0,0,0.042665,-0.0074839,0,0.020817,0,0,0,0.027356,0.0064719,0.010148,11.272,0.014659,0.01931,3.2507e-07,0.08,0.16,0
0.0049737,0.0029138,0.026918,0.005199,0.0096351,0.0028359,0,0,0.044936,-0.011534,0,0.014747,0,0,0,0.027282,0.0048348,0.0096351,7.3178,0.013917,0.020474,3.6042e-07,0.12,0.16,0
0.0068122,0.0035689,0.027126,0.0034273,0.009166,0.0016932,0,0,0.046696,-0.014921,0,0.0088044,0,0,0,0.027246,0.0033069,0.009166,4.0659,0.01324,0.021614,3.9298e-07,0.16,0.16,0
0.0087094,0.004062,0.0272,0.0020464,0.008774,0.00081107,0,0,0.047908,-0.017492,0,0.0042176,0,0,0,0.027227,0.0020203,0.008774,1.8449,0.012674,0.022599,4.1919e-07,0.2,0.16,0
0.010645,0.0044379,0.027197,0.0010631,0.0084779,0.00022684,0,0,0.048669,-0.019279,0,0.0011796,0,0,0,0.027199,0.0010612,0.0084779,0.49728,0.012246,0.023331,4.3693e-07,0.24,0.16,0
0.012603,0.0047414,0.02717,0.00045003,0.0082859,-0.00010825,0,0,0.049098,-0.020373,0,-0.00056292,0,0,0,0.02717,0.00044959,0.0082859,-0.23213,0.011968,0.023791,4.4711e-07,0.28,0.16,0
0.014573,0.0050037,0.027153,0.00017768,0.0081992,-0.00029388,0,0,0.04928,-0.020856,0,-0.0015282,0,0,0,0.027156,0.00017448,0.0081992,-0.6241,0.011843,0.023998,4.5147e-07,0.32,0.16,0
0.016545,0.0052367,0.027178,0.00019906,0.0082132,-0.00043166,0,0,0.049309,-0.020837,0,-0.0022446,0,0,0,0.027185,0.00019215,0.0082132,-0.9164,0.011864,0.024009,4.526e-07,0.36,0.16,0
0.018517,0.0054341,0.027263,0.0003658,0.0082886,-0.00061361,0,0,0.049333,-0.020599,0,-0.0031908,0,0,0,0.027277,0.00035181,0.0082886,-1.3062,0.011973,0.023964,4.5427e-07,0.4,0.16,0
0.020492,0.0055811,0.027415,0.00049461,0.0083728,-0.00084642,0,0,0.049509,-0.020483,0,-0.0044014,0,0,0,0.027441,0.00046802,0.0083728,-1.7991,0.012094,0.024017,4.6037e-07,0.44,0.16,0
0.022478,0.0056667,0.027642,0.00049947,0.0084423,-0.0010904,0,0,0.049918,-0.020651,0,-0.0056702,0,0,0,0.027685,0.00045573,0.0084423,-2.2969,0.012195,0.024244,4.7309e-07,0.48,0.16,0
0.024485,0.0056903,0.027927,0.00037497,0.0084906,-0.0012842,0,0,0.050535,-0.021101,0,-0.0066778,0,0,0,0.027987,0.00031525,0.0084906,-2.6629,0.012264,0.024624,4.9155e-07,0.52,0.16,0
0.026521,0.0056611,0.028244,0.00016849,0.0085238,-0.0013906,0,0,0.051273,-0.021724,0,-0.0072312,0,0,0,0.028313,9.978e-05,0.0085238,-2.8287,0.012312,0.025086,5.1328e-07,0.56,0.16,0
0.028587,0.0055946,0.028557,-6.9701e-05,0.0085462,-0.0013922,0,0,0.052028,-0.022401,0,-0.0072397,0,0,0,0.028624,-0.00013725,0.0085462,-2.7778,0.012344,0.025552,5.3515e-07,0.6,0.16,0
0.030683,0.0055083,0.028839,-0.00028605,0.0085658,-0.0012949,0,0,0.052709,-0.023015,0,-0.0067333,0,0,0,0.028896,-0.00034351,0.0085658,-2.5406,0.012373,0.025958,5.5463e-07,0.64,0.16,0
0.032804,0.0054187,0.02907,-0.00044316,0.0085881,-0.0011209,0,0,0.053253,-0.023481,0,-0.0058288,0,0,0,0.029113,-0.00048567,0.0085881,-2.1719,0.012405,0.026264,5.6999e-07,0.68,0.16,0
0.034943,0.0053383,0.029243,-0.00052295,0.0086159,-0.00090253,0,0,0.053629,-0.023761,0,-0.0046932,0,0,0,0.02927,-0.00055029,0.0086159,-1.7352,0.012445,0.026456,5.8052e-07,0.72,0.16,0
0.037094,0.0052748,0.029356,-0.00052615,0.008649,-0.00067311,0,0,0.053839,-0.023856,0,-0.0035002,0,0,0,0.029371,-0.0005413,0.008649,-1.2897,0.012493,0.026539,5.8636e-07,0.76,0.16,0
0.039251,0.0052309,0.029419,-0.0004675,0.0086855,-0.00046123,0,0,0.053908,-0.023798,0,-0.0023984,0,0,0,0.029426,-0.00047461,0.0086855,-0.88394,0.012546,0.026534,5.8828e-07,0.8,0.16,0
0.041407,0.0052053,0.029444,-0.00037009,0.0087221,-0.00028658,0,0,0.053877,-0.02364,0,-0.0014902,0,0,0,0.029447,-0.00037284,0.0087221,-0.55067,0.012599,0.026471,5.8741e-07,0.84,0.16,0
0.043561,0.0051936,0.029444,-0.00025988,0.0087553,-0.00015835,0,0,0.053791,-0.023439,0,-0.00082342,0,0,0,0.029445,-0.00026072,0.0087553,-0.30543,0.012647,0.02638,5.85e-07,0.88,0.16,0
0.04571,0.0051905,0.029434,-0.00016123,0.0087817,-7.5448e-05,0,0,0.053695,-0.023252,0,-0.00039233,0,0,0,0.029434,-0.00016142,0.0087817,-0.14607,0.012685,0.02629,5.8226e-07,0.92,0.16,0
0.047856,0.0051911,0.029423,-9.367e-05,0.0087987,-2.8035e-05,0,0,0.053622,-0.02312,0,-0.00014578,0,0,0,0.029423,-9.3696e-05,0.0087987,-0.05442,0.012709,0.026226,5.8018e-07,0.96,0.16,0
0.05,0.0051917,0.029418,-6.9714e-05,0.0088045,2.9126e-06,0,0,0.053595,-0.023073,0,1.5145e-05,0,0,0,0.029418,-6.9714e-05,0.0088045,0.0056593,0.012718,0.026203,5.7942e-07,1,0.16,0
0,0,0.026121,0.011194,0.011194,0.0046956,0,0,0.038808,3.2526e-19,0,0.024417,0,0,0,0.027475,0.0098402,0.011194,16.089,0.01617,0.016998,2.4685e-07,0,0.2,0
0.0015523,0.00097669,0.026066,0.010044,0.010833,0.0044305,0,0,0.039607,-0.0020525,0,0.023039,0,0,0,0.02721,0.0089,0.010833,14.472,0.015648,0.017424,2.6044e-07,0.04,0.2,0
0.0031685,0.0018258,0.026356,0.0083834,0.010422,0.0036285,0,0,0.04143,-0.0053002,0,0.018868,0,0,0,0.027061,0.0076785,0.010422,10.994,0.015054,0.018167,2.8442e-07,0.08,0.2,0
0.0048667,0.0025062,0.026617,0.0064091,0.009908,0.0025994,0,0,0.043445,-0.009097,0,0.013517,0,0,0,0.026947,0.0060801,0.009908,7.2136,0.014311,0.01924,3.1755e-07,0.12,0.2,0
0.0066441,0.0030157,0.026787,0.0044157,0.0093608,0.0016229,0,0,0.045308,-0.012857,0,0.0084392,0,0,0,0.026904,0.0042985,0.0093608,4.1277,0.013521,0.020548,3.5604e-07,0.16,0.2,0
0.0084913,0.0033911,0.026871,0.0027307,0.0088805,0.0008281,0,0,0.046775,-0.015989,0,0.0043061,0,0,0,0.026899,0.0027023,0.0088805,1.9624,0.012827,0.021775,3.899e-07,0.2,0.2,0
0.010386,0.0036835,0.026927,0.0015406,0.0085403,0.00026164,0,0,0.047806,-0.018199,0,0.0013605,0,0,0,0.02693,0.0015379,0.0085403,0.59042,0.012336,0.022715,4.1473e-07,0.24,0.2,0
0.012316,0.0039345,0.026972,0.00073464,0.0083119,-0.00013945,0,0,0.048516,-0.019701,0,-0.00072512,0,0,0,0.026972,0.0007339,0.0083119,-0.30451,0.012006,0.023389,4.3212e-07,0.28,0.2,0
0.014267,0.0041725,0.027036,0.00030575,0.0082026,-0.00036157,0,0,0.048968,-0.020532,0,-0.0018802,0,0,0,0.027041,0.00030086,0.0082026,-0.77482,0.011848,0.023795,4.4346e-07,0.32,0.2,0
0.016233,0.0044062,0.027171,0.00034741,0.0082555,-0.0005412,0,0,0.04918,-0.020561,0,-0.0028143,0,0,0,0.027182,0.00033649,0.0082555,-1.1554,0.011925,0.023891,4.4979e-07,0.36,0.2,0
0.018202,0.0046154,0.027369,0.00063053,0.0083999,-0.0007747,0,0,0.04932,-0.0202,0,-0.0040284,0,0,0,0.027392,0.00060811,0.0083999,-1.6582,0.012133,0.023862,4.5521e-07,0.4,0.2,0
0.020179,0.0047678,0.027619,0.00080126,0.008526,-0.0011036,0,0,0.049641,-0.020084,0,-0.0057384,0,0,0,0.027664,0.00075593,0.008526,-2.3524,0.012315,0.023986,4.6616e-07,0.44,0.2,0
0.022173,0.0048449,0.027919,0.00074412,0.0085991,-0.0014073,0,0,0.050233,-0.020423,0,-0.0073178,0,0,0,0.027992,0.00067143,0.0085991,-2.9565,0.012421,0.024345,4.8481e-07,0.48,0.2,0
0.024198,0.0048468,0.028281,0.00053719,0.0086454,-0.0016356,0,0,0.051052,-0.021081,0,-0.0085052,0,0,0,0.028377,0.0004411,0.0086454,-3.3623,0.012488,0.02487,5.0995e-07,0.52,0.2,0
0.026257,0.0047883,0.028637,0.00020629,0.008653,-0.0017399,0,0,0.051959,-0.021961,0,-0.0090475,0,0,0,0.028743,0.00010021,0.008653,-3.489,0.012499,0.025468,5.3706e-07,0.56,0.2,0
0.028354,0.0046904,0.028969,-0.00015613,0.0086438,-0.0017077,0,0,0.052845,-0.02288,0,-0.0088801,0,0,0,0.029069,-0.00025592,0.0086438,-3.3442,0.012486,0.026041,5.6282e-07,0.6,0.2,0
0.030485,0.0045763,0.029247,-0.00047418,0.0086319,-0.0015515,0,0,0.0536,-0.023676,0,-0.0080677,0,0,0,0.029328,-0.00055495,0.0086319,-2.9801,0.012468,0.026511,5.8405e-07,0.64,0.2,0
0.032642,0.0044661,0.029456,-0.00069433,0.0086285,-0.0013066,0,0,0.054151,-0.024239,0,-0.0067945,0,0,0,0.029513,-0.00075085,0.0086285,-2.4769,0.012463,0.026833,5.9904e-07,0.68,0.2,0
0.034817,0.0043741,0.02959,-0.00079569,0.0086383,-0.0010174,0,0,0.054475,-0.024528,0,-0.0052907,0,0,0,0.029624,-0.00082972,0.0086383,-1.9156,0.012478,0.026995,6.074e-07,0.72,0.2,0
0.037,0.0043078,0.029656,-0.0007839,0.0086616,-0.00072671,0,0,0.054585,-0.024558,0,-0.0037789,0,0,0,0.029673,-0.00080124,0.0086616,-1.3668,0.012511,0.027016,6.0981e-07,0.76,0.2,0
0.039184,0.0042682,0.029667,-0.0006836,0.008695,-0.00046873,0,0,0.054527,-0.024384,0,-0.0024374,0,0,0,0.029674,-0.00069084,0.008695,-0.88459,0.012559,0.026928,6.0763e-07,0.8,0.2,0
0.041362,0.0042513,0.029642,-0.00053006,0.0087335,-0.00026542,0,0,0.054362,-0.024085,0,-0.0013802,0,0,0,0.029644,-0.00053239,0.0087335,-0.50397,0.012615,0.026774,6.0256e-07,0.84,0.2,0
0.043533,0.0042501,0.029599,-0.00036141,0.0087713,-0.00012539,0,0,0.054152,-0.023745,0,-0.00065202,0,0,0,0.0296,-0.00036193,0.0087713,-0.23978,0.01267,0.026598,5.9633e-07,0.88,0.2,0
0.045694,0.0042567,0.029555,-0.00021267,0.0088027,-4.4899e-05,0,0,0.053956,-0.02344,0,-0.00023347,0,0,0,0.029555,-0.00021273,0.0088027,-0.086419,0.012715,0.026439,5.9056e-07,0.92,0.2,0
0.047849,0.0042639,0.029523,-0.00011157,0.0088235,-1.0102e-05,0,0,0.053819,-0.023231,0,-5.2528e-05,0,0,0,0.029523,-0.00011157,0.0088235,-0.01953,0.012745,0.02633,5.8654e-07,0.96,0.2,0
0.05,0.0042668,0.029512,-7.584e-05,0.0088308,1.4305e-05,0,0,0.053771,-0.023157,0,7.4384e-05,0,0,0,0.029512,-7.5847e-05,0.0088308,0.027701,0.012756,0.026291,5.851e-07,1,0.2,0
0,0,0.02655,0.011378,0.011378,0.0044016,0,0,0.039446,2.7105e-19,0,0.022888,0,0,0,0.027734,0.010194,0.011378,15.062,0.016436,0.016979,2.4728e-07,0,0.24,0
0.0015778,0.00091554,0.02656,0.010734,0.011188,0.0042038,0,0,0.039966,-0.0011798,0,0.02186,0,0,0,0.027607,0.009687,0.011188,13.99,0.016161,0.017219,2.5548e-07,0.04,0.24,0
0.0031973,0.0016513,0.02653,0.0092233,0.010726,0.0034259,0,0,0.041091,-0.0039071,0,0.017815,0,0,0,0.027184,0.0085698,0.010726,10.799,0.015493,0.017635,2.6752e-07,0.08,0.24,0
0.0048651,0.002186,0.02659,0.007473,0.010219,0.0025857,0,0,0.042566,-0.0071397,0,0.013446,0,0,0,0.026934,0.0071294,0.010219,7.5684,0.014761,0.018455,2.9254e-07,0.12,0.24,0
0.0066025,0.0025403,0.026442,0.0052706,0.0095137,0.0016663,0,0,0.044013,-0.011032,0,0.0086645,0,0,0,0.026572,0.0051402,0.0095137,4.4727,0.013742,0.019614,3.2355e-07,0.16,0.24,0
0.0083861,0.0027828,0.026193,0.0032992,0.0088475,0.0010365,0,0,0.045097,-0.014426,0,0.0053897,0,0,0,0.026239,0.0032523,0.0088475,2.587,0.01278,0.020763,3.4963e-07,0.2,0.24,0
0.01021,0.0029819,0.026187,0.0022951,0.0085447,0.00034414,0,0,0.045871,-0.016249,0,0.0017895,0,0,0,0.026192,0.0022902,0.0085447,0.82505,0.012342,0.021469,3.6659e-07,0.24,0.24,0
0.012056,0.0031654,0.026262,0.0013362,0.0082793,-0.00029764,0,0,0.046754,-0.018052,0,-0.0015477,0,0,0,0.026265,0.0013327,0.0082793,-0.68405,0.011959,0.022286,3.8786e-07,0.28,0.24,0
0.013951,0.0033611,0.026415,0.0003942,0.0080427,-0.00071085,0,0,0.047768,-0.019886,0,-0.0036964,0,0,0,0.026434,0.00037479,0.0080427,-1.5637,0.011617,0.023196,4.1286e-07,0.32,0.24,0
0.015877,0.0035918,0.026885,0.00050474,0.0082169,-0.00083272,0,0,0.048537,-0.020051,0,-0.0043301,0,0,0,0.026911,0.00047848,0.0082169,-1.8062,0.011869,0.023538,4.3384e-07,0.36,0.24,0
0.017833,0.0038181,0.0274,0.0010132,0.0085238,-0.0011749,0,0,0.049077,-0.019528,0,-0.0061094,0,0,0,0.027452,0.00096101,0.0085238,-2.5445,0.012312,0.023635,4.5141e-07,0.4,0.24,0
0.019803,0.0039744,0.027787,0.0010507,0.0086512,-0.0014838,0,0,0.049752,-0.019761,0,-0.0077157,0,0,0,0.027869,0.00096859,0.0086512,-3.1668,0.012496,0.024,4.7243e-07,0.44,0.24,0
0.021814,0.0040329,0.028313,0.0010287,0.0088025,-0.0018076,0,0,0.050727,-0.020212,0,-0.0093996,0,0,0,0.028432,0.00090944,0.0088025,-3.7739,0.012715,0.024547,5.0332e-07,0.48,0.24,0
0.023862,0.0040038,0.028732,0.00069801,0.0088289,-0.0020298,0,0,0.051747,-0.02114,0,-0.010555,0,0,0,0.028878,0.0005518,0.0088289,-4.1199,0.012753,0.025227,5.3528e-07,0.52,0.24,0
0.025954,0.0039042,0.029126,0.00021398,0.0088019,-0.0021116,0,0,0.052842,-0.022329,0,-0.01098,0,0,0,0.029279,6.058e-05,0.0088019,-4.1552,0.012714,0.025975,5.6853e-07,0.56,0.24,0
0.028089,0.0037642,0.02946,-0.00030766,0.0087458,-0.0020206,0,0,0.053857,-0.023539,0,-0.010507,0,0,0,0.029597,-0.00044418,0.0087458,-3.8655,0.012633,0.026662,5.9787e-07,0.6,0.24,0
0.030262,0.0036142,0.029721,-0.00074249,0.0086936,-0.0017827,0,0,0.054671,-0.024534,0,-0.0092702,0,0,0,0.029825,-0.00084646,0.0086936,-3.3378,0.012557,0.027187,6.2007e-07,0.64,0.24,0
0.032463,0.0034795,0.029892,-0.0010263,0.0086597,-0.0014493,0,0,0.055204,-0.025184,0,-0.0075364,0,0,0,0.02996,-0.0010941,0.0086597,-2.6779,0.012508,0.027506,6.3347e-07,0.68,0.24,0
0.034678,0.003376,0.029974,-0.0011391,0.0086505,-0.0010786,0,0,0.055441,-0.025453,0,-0.0056089,0,0,0,0.030011,-0.0011764,0.0086505,-1.9832,0.012495,0.027618,6.3838e-07,0.72,0.24,0
0.036898,0.0033102,0.029982,-0.0010954,0.0086658,-0.00072281,0,0,0.055421,-0.025379,0,-0.0037586,0,0,0,0.029998,-0.0011122,0.0086658,-1.3317,0.012517,0.027555,6.3626e-07,0.76,0.24,0
0.039112,0.0032802,0.029935,-0.00093374,0.0087003,-0.00042077,0,0,0.055209,-0.025048,0,-0.002188,0,0,0,0.02994,-0.00093947,0.0087003,-0.7808,0.012567,0.027364,6.2912e-07,0.8,0.24,0
0.041315,0.0032784,0.029857,-0.00070464,0.0087455,-0.00019536,0,0,0.054888,-0.02457,0,-0.0010159,0,0,0,0.029858,-0.00070589,0.0087455,-0.36624,0.012632,0.027103,6.192e-07,0.84,0.24,0
0.043503,0.003294,0.029769,-0.00046062,0.0087926,-5.3258e-05,0,0,0.05454,-0.024058,0,-0.00027694,0,0,0,0.02977,-0.00046071,0.0087926,-0.10094,0.0127,0.026828,6.0869e-07,0.88,0.24,0
0.045678,0.0033153,0.029693,-0.00024861,0.0088331,1.2929e-05,0,0,0.054234,-0.023613,0,6.723e-05,0,0,0,0.029693,-0.00024861,0.0088331,0.024741,0.012759,0.02659,5.9957e-07,0.92,0.24,0
0.047842,0.0033326,0.02964,-0.00010558,0.0088604,2.1831e-05,0,0,0.054028,-0.023311,0,0.00011352,0,0,0,0.02964,-0.0001056,0.0088604,0.04205,0.012798,0.026429,5.9339e-07,0.96,0.24,0
0.05,0.0033391,0.029622,-5.518e-05,0.00887,3.1381e-05,0,0,0.053955,-0.023205,0,0.00016318,0,0,0,0.029622,-5.5213e-05,0.00887,0.060586,0.012812,0.026373,5.9122e-07,1,0.24,0
0,0,0.02776,0.011897,0.011897,0.0042419,0,0,0.041244,1.6263e-19,0,0.022058,0,0,0,0.028823,0.010834,0.011897,14.069,0.017185,0.017482,2.7098e-07,0,0.28,0
0.0016497,0.00088231,0.027716,0.011413,0.011739,0.0040977,0,0,0.04154,-0.00084604,0,0.021308,0,0,0,0.028688,0.010441,0.011739,13.345,0.016956,0.017634,2.7648e-07,0.04,0.28,0
0.0033232,0.0015132,0.027669,0.010017,0.011306,0.0034832,0,0,0.042545,-0.0033509,0,0.018113,0,0,0,0.028332,0.0093547,0.011306,10.768,0.016331,0.018081,2.9169e-07,0.08,0.28,0
0.0050533,0.0019351,0.026728,0.0076012,0.010299,0.0028652,0,0,0.042716,-0.0070134,0,0.014899,0,0,0,0.027148,0.0071813,0.010299,8.3392,0.014876,0.018605,2.9968e-07,0.12,0.28,0
0.0067405,0.0021331,0.026057,0.0058702,0.0095781,0.0028457,0,0,0.042845,-0.0096406,0,0.014797,0,0,0,0.02645,0.0054767,0.0095781,7.8725,0.013835,0.019253,3.1123e-07,0.16,0.28,0
0.0084809,0.002237,0.025353,0.0045702,0.0089771,0.0016729,0,0,0.042578,-0.011458,0,0.008699,0,0,0,0.025487,0.0044364,0.0089771,4.5726,0.012967,0.019188,2.9546e-07,0.2,0.28,0
0.010147,0.0023835,0.024317,0.0033457,0.0082989,0.0006133,0,0,0.041648,-0.012878,0,0.0031892,0,0,0,0.024335,0.0033277,0.0082989,1.6737,0.011987,0.019016,2.7346e-07,0.24,0.28,0
0.011813,0.0024903,0.024334,0.002317,0.0079954,-0.00057337,0,0,0.042481,-0.014764,0,-0.0029815,0,0,0,0.024349,0.0023021,0.0079954,-1.4907,0.011549,0.019823,2.9163e-07,0.28,0.28,0
0.013545,0.0025816,0.025419,0.0013461,0.0080297,-0.001454,0,0,0.045213,-0.017377,0,-0.007561,0,0,0,0.025507,0.0012586,0.0080297,-3.444,0.011598,0.021671,3.5585e-07,0.32,0.28,0
0.01543,0.0028021,0.026216,0.0005103,0.0080179,-0.0022503,0,0,0.047315,-0.01952,0,-0.011702,0,0,0,0.026412,0.00031479,0.0080179,-4.9655,0.011581,0.023224,4.1283e-07,0.36,0.28,0
0.01733,0.0030532,0.027192,0.00067561,0.0083602,-0.001823,0,0,0.048962,-0.01998,0,-0.0094794,0,0,0,0.027316,0.00055087,0.0083602,-3.9145,0.012076,0.02384,4.5251e-07,0.4,0.28,0
0.019347,0.0031869,0.028481,0.0013713,0.0089557,-0.002028,0,0,0.050766,-0.019719,0,-0.010546,0,0,0,0.028632,0.0012204,0.0089557,-4.2547,0.012936,0.024478,5.0749e-07,0.44,0.28,0
0.021392,0.0032279,0.028949,0.0012832,0.0090698,-0.0022209,0,0,0.051687,-0.020245,0,-0.011549,0,0,0,0.029127,0.001106,0.0090698,-4.5605,0.013101,0.025008,5.3726e-07,0.48,0.28,0
0.023482,0.0031556,0.029405,0.00087397,0.0090835,-0.0024398,0,0,0.052834,-0.021345,0,-0.012687,0,0,0,0.029612,0.00066683,0.0090835,-4.8528,0.013121,0.025788,5.7488e-07,0.52,0.28,0
0.025618,0.0030021,0.029751,0.00016054,0.0089736,-0.0024734,0,0,0.054022,-0.022914,0,-0.012862,0,0,0,0.029957,-4.4787e-05,0.0089736,-4.7454,0.012962,0.026662,6.1126e-07,0.56,0.28,0
0.027803,0.0028073,0.03005,-0.00054698,0.008851,-0.0022996,0,0,0.055118,-0.024435,0,-0.011958,0,0,0,0.030222,-0.00071885,0.008851,-4.2743,0.012785,0.027438,6.4224e-07,0.6,0.28,0
0.030028,0.0026136,0.030254,-0.0011051,0.0087446,-0.00196,0,0,0.055924,-0.025609,0,-0.010192,0,0,0,0.030376,-0.0012272,0.0087446,-3.5626,0.012631,0.027983,6.6267e-07,0.64,0.28,0
0.032278,0.0024514,0.030354,-0.0014452,0.0086727,-0.0015276,0,0,0.056372,-0.026306,0,-0.0079437,0,0,0,0.030427,-0.0015184,0.0086727,-2.7441,0.012527,0.028264,6.7193e-07,0.68,0.28,0
0.034538,0.0023379,0.030363,-0.001553,0.008643,-0.0010735,0,0,0.056472,-0.02651,0,-0.0055823,0,0,0,0.030399,-0.0015891,0.008643,-1.9243,0.012484,0.028296,6.7151e-07,0.72,0.28,0
0.036795,0.0022775,0.030302,-0.0014561,0.0086538,-0.00065631,0,0,0.056285,-0.026286,0,-0.0034128,0,0,0,0.030315,-0.0014696,0.0086538,-1.1834,0.0125,0.028125,6.6369e-07,0.76,0.28,0
0.03904,0.0022644,0.030196,-0.0012101,0.0086957,-0.00031789,0,0,0.0559,-0.025755,0,-0.001653,0,0,0,0.030199,-0.0012133,0.0086957,-0.57987,0.01256,0.027815,6.5102e-07,0.8,0.28,0
0.041267,0.0022857,0.030069,-0.00088452,0.0087553,-7.9989e-05,0,0,0.055415,-0.025063,0,-0.00041594,0,0,0,0.030069,-0.00088473,0.0087553,-0.14806,0.012646,0.027435,6.3605e-07,0.84,0.28,0
0.043474,0.0023254,0.029944,-0.00054728,0.008819,5.3696e-05,0,0,0.054925,-0.024352,0,0.00027922,0,0,0,0.029944,-0.00054737,0.008819,0.1009,0.012739,0.027053,6.2123e-07,0.88,0.28,0
0.045661,0.0023677,0.02984,-0.00025797,0.0088747,9.4613e-05,0,0,0.05451,-0.023745,0,0.00049199,0,0,0,0.02984,-0.00025827,0.0088747,0.1801,0.012819,0.026729,6.0876e-07,0.92,0.28,0
0.047835,0.0023989,0.029772,-6.3673e-05,0.0089125,6.5957e-05,0,0,0.054235,-0.023338,0,0.00034298,0,0,0,0.029772,-6.3819e-05,0.0089125,0.12666,0.012874,0.026513,6.0045e-07,0.96,0.28,0
0.05,0.0024104,0.029748,4.679e-06,0.0089259,5.5113e-05,0,0,0.054138,-0.023195,0,0.00028659,0,0,0,0.029748,4.5769e-06,0.0089259,0.10616,0.012893,0.026437,5.9754e-07,1,0.28,0
0,0,0.029772,0.012759,0.012759,0.0040762,0,0,0.044232,-3.2526e-19,0,0.021196,0,0,0,0.030698,0.011833,0.012759,12.802,0.01843,0.018419,3.1822e-07,0,0.32,0
0.0017693,0.00084785,0.029968,0.012336,0.012691,0.0040844,0,0,0.044919,-0.0009233,0,0.021239,0,0,0,0.030868,0.011436,0.012691,12.429,0.018332,0.018836,3.3809e-07,0.04,0.32,0
0.0035935,0.0013833,0.029567,0.010211,0.011933,0.0033917,0,0,0.045847,-0.004478,0,0.017637,0,0,0,0.030144,0.0096339,0.011933,9.6566,0.017237,0.019462,3.6087e-07,0.08,0.32,0
0.005437,0.0016249,0.030386,0.0085477,0.01168,0.0036782,0,0,0.048635,-0.0081442,0,0.019127,0,0,0,0.030989,0.0079448,0.01168,9.3083,0.016871,0.021422,4.5359e-07,0.12,0.32,0
0.0074843,0.0017691,0.034113,0.0073456,0.012438,0.0033552,0,0,0.039516,-0.0088656,0,0.013141,0,0,0,0.034549,0.0069098,0.012438,7.3723,0.017965,0.025335,7.7829e-07,0.16,0.32,0
0.0088316,0.0018662,0.030366,0.0052843,0.010695,0.0020706,0,0,0.034097,-0.0093516,0,0.0081461,0,0,0,0.03056,0.0050906,0.010695,5.2905,0.015449,0.023181,6.8046e-07,0.2,0.32,0
0.010212,0.0019517,0.030502,0.0041647,0.0104,0.0007729,0,0,0.034844,-0.010805,0,0.0027869,0,0,0,0.030525,0.0041417,0.0104,1.7467,0.015022,0.023878,7.2054e-07,0.24,0.32,0
0.011619,0.0019843,0.030391,0.0030781,0.010041,-0.00055635,0,0,0.035273,-0.012214,0,-0.0025964,0,0,0,0.030413,0.0030562,0.010041,-1.5511,0.014503,0.024619,7.4922e-07,0.28,0.32,0
0.013034,0.001971,0.030245,0.0020546,0.0096899,-0.0016999,0,0,0.035629,-0.013742,0,-0.0074718,0,0,0,0.030399,0.0019008,0.0096899,-4.1902,0.013997,0.02552,7.7847e-07,0.32,0.32,0
0.014469,0.0020302,0.033488,0.00073222,0.010266,-0.0026231,0,0,0.042432,-0.016921,0,-0.010547,0,0,0,0.033716,0.00050382,0.010266,-4.8407,0.014829,0.02957,9.3866e-07,0.36,0.32,0
0.01669,0.0022197,0.030099,0.0010715,0.009351,-0.0028235,0,0,0.053943,-0.021527,0,-0.014682,0,0,0,0.030371,0.00079937,0.009351,-5.5046,0.013507,0.026357,6.1752e-07,0.4,0.32,0
0.018785,0.0023968,0.029615,0.0013015,0.009275,-0.0022943,0,0,0.052885,-0.020731,0,-0.01193,0,0,0,0.0298,0.0011167,0.009275,-4.6027,0.013397,0.025598,5.7574e-07,0.44,0.32,0
0.020921,0.0024132,0.030201,0.0017582,0.0095877,-0.0025693,0,0,0.053594,-0.020357,0,-0.01336,0,0,0,0.030431,0.001528,0.0095877,-5.1204,0.013849,0.025834,6.0363e-07,0.48,0.32,0
0.023072,0.0022962,0.030316,0.00099858,0.0093943,-0.0027701,0,0,0.054396,-0.021829,0,-0.014404,0,0,0,0.030575,0.00073915,0.0093943,-5.3506,0.01357,0.026587,6.3165e-07,0.52,0.32,0
0.025273,0.0020711,0.03056,2.0881e-05,0.0091743,-0.0027511,0,0,0.055603,-0.023799,0,-0.014306,0,0,0,0.030806,-0.00022498,0.0091743,-5.1068,0.013252,0.027561,6.6882e-07,0.56,0.32,0
0.027521,0.0018094,0.030733,-0.0008827,0.0089552,-0.0024747,0,0,0.056623,-0.025579,0,-0.012868,0,0,0,0.030926,-0.0010752,0.0089552,-4.4486,0.012935,0.028349,6.9558e-07,0.6,0.32,0
0.029803,0.0015655,0.030802,-0.001559,0.008773,-0.0020316,0,0,0.057276,-0.026863,0,-0.010564,0,0,0,0.030929,-0.0016861,0.008773,-3.5782,0.012672,0.028845,7.087e-07,0.64,0.32,0
0.032103,0.001375,0.030783,-0.0019391,0.0086532,-0.0015126,0,0,0.057538,-0.02754,0,-0.0078656,0,0,0,0.030853,-0.0020089,0.0086532,-2.641,0.012499,0.029038,7.1005e-07,0.68,0.32,0
0.034406,0.0012552,0.030696,-0.0020236,0.0086017,-0.00099247,0,0,0.057445,-0.027626,0,-0.0051608,0,0,0,0.030726,-0.0020537,0.0086017,-1.7358,0.012425,0.028961,7.0236e-07,0.72,0.32,0
0.036698,0.0012073,0.030566,-0.0018518,0.0086142,-0.00053275,0,0,0.057074,-0.027212,0,-0.0027703,0,0,0,0.030575,-0.0018606,0.0086142,-0.94125,0.012443,0.028671,6.8844e-07,0.76,0.32,0
0.038972,0.0012198,0.030414,-0.0015004,0.008674,-0.00017395,0,0,0.056523,-0.026454,0,-0.00090452,0,0,0,0.030415,-0.0015014,0.008674,-0.31227,0.012529,0.028239,6.7077e-07,0.8,0.32,0
0.04122,0.0012734,0.030259,-0.0010604,0.0087595,6.3692e-05,0,0,0.055898,-0.025532,0,0.0003312,0,0,0,0.030259,-0.0010605,0.0087595,0.11652,0.012653,0.027745,6.5171e-07,0.84,0.32,0
0.043443,0.0013458,0.030117,-0.00061491,0.0088506,0.00018072,0,0,0.055292,-0.02461,0,0.00093973,0,0,0,0.030118,-0.00061597,0.0088506,0.33691,0.012784,0.027262,6.335e-07,0.88,0.32,0
0.045644,0.0014157,0.030003,-0.00023387,0.0089309,0.00019004,0,0,0.054789,-0.023828,0,0.00098822,0,0,0,0.030005,-0.00023507,0.0089309,0.36009,0.0129,0.026857,6.1832e-07,0.92,0.32,0
0.047827,0.0014655,0.02993,2.2371e-05,0.0089856,0.00011739,0,0,0.054455,-0.023304,0,0.00061042,0,0,0,0.02993,2.191e-05,0.0089856,0.22489,0.012979,0.026585,6.0818e-07,0.96,0.32,0
0.05,0.0014835,0.029904,0.00011275,0.0090051,8.6364e-05,0,0,0.054337,-0.02312,0,0.00044909,0,0,0,0.029904,0.0001125,0.0090051,0.1661,0.013007,0.02649,6.0463e-07,1,0.32,0
0,0,0.033074,0.014175,0.014175,0.0038867,0,0,0.049139,3.2526e-19,0,0.020211,0,0,0,0.033842,0.013407,0.014175,11.179,0.020474,0.020063,4.1271e-07,0,0.36,0
0.0019655,0.00080844,0.032671,0.012817,0.013646,0.0039036,0,0,0.049463,-0.0021562,0,0.020299,0,0,0,0.033411,0.012077,0.013646,10.733,0.019711,0.020594,4.398e-07,0.04,0.36,0
0.0039571,0.001155,0.033974,0.011451,0.013628,0.0036279,0,0,0.052901,-0.0056591,0,0.018865,0,0,0,0.034544,0.010881,0.013628,8.928,0.019684,0.022416,5.4936e-07,0.08,0.36,0
0.0061977,0.0012835,0.039106,0.0099478,0.014716,0.0029723,0,0,0.044239,-0.008304,0,0.012008,0,0,0,0.03944,0.0096143,0.014716,6.1819,0.021257,0.027632,1.0797e-06,0.12,0.36,0
0.0077317,0.0014192,0.031366,0.0061805,0.011264,0.0013772,0,0,0.03572,-0.0087954,0,0.0059747,0,0,0,0.031471,0.0060749,0.011264,3.6831,0.01627,0.023241,6.4925e-07,0.16,0.36,0
0.00895,0.0014889,0.037103,0.0058069,0.012873,0.0011474,0,0,0.031499,-0.0091858,0,0.0029831,0,0,0,0.037145,0.0057649,0.012873,2.0968,0.018594,0.028499,9.441e-07,0.2,0.36,0
0.010252,0.0015191,0.038325,0.0049462,0.012981,0.00059707,0,0,0.032946,-0.010446,0,0.0015524,0,0,0,0.038335,0.0049355,0.012981,1.0245,0.018751,0.030192,1.0823e-06,0.24,0.36,0
0.011586,0.0015132,0.038046,0.0038394,0.012566,7.1443e-07,0,0,0.033124,-0.011344,0,1.8575e-06,0,0,0,0.038046,0.0038394,0.012566,0.0011967,0.01815,0.030785,1.1025e-06,0.28,0.36,0
0.012901,0.0014822,0.036438,0.0024245,0.011659,-0.00066865,0,0,0.032213,-0.012004,0,-0.0017385,0,0,0,0.036451,0.0024114,0.011659,-1.1258,0.016841,0.030487,1.0166e-06,0.32,0.36,0
0.014163,0.0014009,0.030576,0.00095435,0.0094592,-0.0010609,0,0,0.037617,-0.01499,0,-0.005111,0,0,0,0.030653,0.00087806,0.0094592,-2.6065,0.013663,0.026546,7.5614e-07,0.36,0.36,0
0.015789,0.0013311,0.037574,0.001113,0.011606,-0.0020005,0,0,0.047187,-0.018763,0,-0.008458,0,0,0,0.037708,0.00097869,0.011606,-3.4534,0.016764,0.032738,1.3228e-06,0.4,0.36,0
0.018199,0.0015284,0.032689,0.0020075,0.010409,-0.0024827,0,0,0.057928,-0.021844,0,-0.01291,0,0,0,0.032889,0.0018079,0.010409,-4.5964,0.015035,0.027797,7.575e-07,0.44,0.36,0
0.020424,0.0015994,0.031626,0.0021148,0.010122,-0.0025793,0,0,0.05591,-0.020819,0,-0.013413,0,0,0,0.03185,0.001891,0.010122,-4.9577,0.014621,0.026808,6.8412e-07,0.48,0.36,0
0.022672,0.0014093,0.031615,0.0010564,0.0098015,-0.0028758,0,0,0.056716,-0.022737,0,-0.014954,0,0,0,0.031884,0.00078812,0.0098015,-5.3296,0.014158,0.027711,7.1581e-07,0.52,0.36,0
0.024961,0.0010981,0.031573,-0.00017544,0.0094194,-0.0027859,0,0,0.0576,-0.024947,0,-0.014487,0,0,0,0.031816,-0.00041805,0.0094194,-4.977,0.013606,0.028613,7.4128e-07,0.56,0.36,0
0.02728,0.00076103,0.031425,-0.0012962,0.0090387,-0.0024276,0,0,0.058205,-0.026871,0,-0.012624,0,0,0,0.031604,-0.0014753,0.0090387,-4.22,0.013056,0.029274,7.5073e-07,0.6,0.36,0
0.029617,0.00046451,0.031251,-0.0020627,0.0087565,-0.0019262,0,0,0.058486,-0.02813,0,-0.010016,0,0,0,0.031362,-0.0021737,0.0087565,-3.2982,0.012648,0.029624,7.4846e-07,0.64,0.36,0
0.031959,0.00024817,0.031057,-0.0024579,0.0085798,-0.0013756,0,0,0.058441,-0.028698,0,-0.0071529,0,0,0,0.031114,-0.0025143,0.0085798,-2.3463,0.012393,0.029679,7.3786e-07,0.68,0.36,0
0.034292,0.00012781,0.030864,-0.0025121,0.0085056,-0.00084703,0,0,0.058132,-0.028646,0,-0.0044046,0,0,0,0.030886,-0.0025335,0.0085056,-1.4528,0.012286,0.029492,7.2247e-07,0.72,0.36,0
0.036609,0.00010056,0.030692,-0.0022575,0.0085303,-0.00038314,0,0,0.05762,-0.028048,0,-0.0019923,0,0,0,0.030696,-0.002262,0.0085303,-0.66612,0.012322,0.029104,7.044e-07,0.76,0.36,0
0.038902,0.00014806,0.030544,-0.0017872,0.008627,-3.1823e-05,0,0,0.056984,-0.027077,0,-0.00016548,0,0,0,0.030544,-0.0017872,0.008627,-0.056395,0.012461,0.028584,6.8496e-07,0.8,0.36,0
0.041168,0.00024313,0.030409,-0.0012308,0.0087536,0.00019553,0,0,0.056305,-0.025959,0,0.0010168,0,0,0,0.030411,-0.001232,0.0087536,0.35405,0.012644,0.028018,6.6502e-07,0.84,0.36,0
0.043407,0.00035662,0.030297,-0.00066722,0.0088888,0.00029691,0,0,0.05566,-0.024846,0,0.0015439,0,0,0,0.030299,-0.00067006,0.0088888,0.54934,0.012839,0.027467,6.461e-07,0.88,0.36,0
0.045621,0.0004614,0.030205,-0.0001796,0.0090077,0.0002808,0,0,0.055114,-0.023887,0,0.0014602,0,0,0,0.030208,-0.0001822,0.0090077,0.52944,0.013011,0.026995,6.2978e-07,0.92,0.36,0
0.047815,0.00053459,0.030145,0.00015394,0.0090896,0.00016802,0,0,0.054743,-0.023233,0,0.00087372,0,0,0,0.030146,0.000153,0.0090896,0.32099,0.013129,0.026672,6.185e-07,0.96,0.36,0
0.05,0.00056081,0.030123,0.00027251,0.0091187,0.00012605,0,0,0.054611,-0.023,0,0.00065547,0,0,0,0.030124,0.00027198,0.0091187,0.24194,0.013171,0.026557,6.1447e-07,1,0.36,0
0,0,0.037663,0.016141,0.016141,0.0032469,0,0,0.055956,-4.3368e-19,0,0.016884,0,0,0,0.038142,0.015662,0.016141,8.3953,0.023315,0.022244,5.644e-07,0,0.4,0
0.0022382,0.00067536,0.0377,0.013806,0.015452,0.0033144,0,0,0.057846,-0.0042789,0,0.017235,0,0,0,0.038152,0.013355,0.015452,7.7526,0.022319,0.023817,6.7581e-07,0.04,0.4,0
0.0046277,0.00093055,0.043886,0.012922,0.017042,0.0035327,0,0,0.048415,-0.0069231,0,0.013803,0,0,0,0.044309,0.012498,0.017042,6.8266,0.024616,0.029805,1.4399e-06,0.08,0.4,0
0.0063379,0.00095599,0.034847,0.0083872,0.01297,0.00075193,0,0,0.039129,-0.0080052,0,0.0029901,0,0,0,0.034871,0.0083636,0.01297,1.7695,0.018735,0.024532,7.9436e-07,0.12,0.4,0
0.0076129,0.0010636,0.039311,0.0073502,0.013998,0.00045173,0,0,0.032906,-0.0086426,0,0.0011745,0,0,0,0.039317,0.0073438,0.013998,0.80959,0.02022,0.02922,1.0607e-06,0.16,0.4,0
0.0089704,0.0011313,0.039968,0.0067526,0.014016,0.00064881,0,0,0.033738,-0.0094428,0,0.0016869,0,0,0,0.039981,0.0067399,0.014016,1.1186,0.020246,0.030266,1.1513e-06,0.2,0.4,0
0.010312,0.001116,0.039277,0.0055635,0.013452,0.00057389,0,0,0.033573,-0.010255,0,0.0014921,0,0,0,0.039287,0.0055538,0.013452,0.97493,0.019431,0.030559,1.1423e-06,0.24,0.4,0
0.011656,0.0010768,0.038955,0.0045097,0.01304,0.00060768,0,0,0.03369,-0.011089,0,0.00158,0,0,0,0.038966,0.004499,0.01304,1.0104,0.018835,0.031089,1.1597e-06,0.28,0.4,0
0.013007,0.0010106,0.038902,0.0033488,0.012675,0.00045974,0,0,0.034094,-0.012124,0,0.0011953,0,0,0,0.038908,0.0033429,0.012675,0.74074,0.018308,0.031938,1.2041e-06,0.32,0.4,0
0.014384,0.00086078,0.037749,0.0016633,0.011824,0.00037913,0,0,0.033703,-0.013209,0,0.00098574,0,0,0,0.037753,0.0016593,0.011824,0.60188,0.017079,0.032237,1.1615e-06,0.36,0.4,0
0.015703,0.00064958,0.033014,0.0012809,0.010288,-6.4692e-05,0,0,0.04067,-0.015969,0,-0.00070602,0,0,0,0.033018,0.0012762,0.010288,-0.2958,0.014861,0.028333,9.24e-07,0.4,0.4,0
0.017484,0.00064932,0.040727,0.0019244,0.012795,-0.0018818,0,0,0.050368,-0.019291,0,-0.0077939,0,0,0,0.040835,0.0018163,0.012795,-3.0587,0.018482,0.034853,1.6859e-06,0.44,0.4,0
0.019967,0.00074769,0.034896,0.0030012,0.011369,-0.0017687,0,0,0.06117,-0.021757,0,-0.009197,0,0,0,0.034994,0.0029034,0.011369,-3.1643,0.016422,0.028806,8.7962e-07,0.48,0.4,0
0.022377,0.00047723,0.033509,0.0013485,0.010457,-0.0023901,0,0,0.059935,-0.023683,0,-0.012429,0,0,0,0.033686,0.0011719,0.010457,-4.2272,0.015105,0.029008,8.343e-07,0.52,0.4,0
0.024762,7.5335e-05,0.032577,-0.00038171,0.0096586,-0.002349,0,0,0.059588,-0.026105,0,-0.012215,0,0,0,0.032744,-0.00054829,0.0096586,-4.0562,0.013951,0.029542,8.1101e-07,0.56,0.4,0
0.027144,-0.00034024,0.03189,-0.0017469,0.0090428,-0.0020112,0,0,0.059402,-0.028053,0,-0.010458,0,0,0,0.03201,-0.0018667,0.0090428,-3.4096,0.013062,0.029951,7.8824e-07,0.6,0.4,0
0.029514,-0.00068489,0.031365,-0.0025017,0.0086589,-0.0015428,0,0,0.059035,-0.029018,0,-0.0080227,0,0,0,0.031435,-0.0025719,0.0086589,-2.603,0.012507,0.030011,7.6159e-07,0.64,0.4,0
0.031867,-0.00092083,0.030962,-0.0028627,0.0084298,-0.0011213,0,0,0.058584,-0.029361,0,-0.0058308,0,0,0,0.030999,-0.0028998,0.0084298,-1.8966,0.012176,0.029891,7.3718e-07,0.68,0.4,0
0.034201,-0.0010364,0.030682,-0.0029517,0.0083191,-0.00069394,0,0,0.058144,-0.029304,0,-0.0036085,0,0,0,0.030696,-0.0029661,0.0083191,-1.1815,0.012016,0.029675,7.1748e-07,0.72,0.4,0
0.036519,-0.0010366,0.030566,-0.0026361,0.0083789,-0.00030214,0,0,0.057686,-0.028639,0,-0.0015712,0,0,0,0.030569,-0.0026388,0.0083789,-0.52135,0.012103,0.029296,7.0288e-07,0.76,0.4,0
0.038816,-0.00094635,0.030535,-0.0020569,0.0085435,1.9379e-05,0,0,0.057179,-0.027561,0,0.00010077,0,0,0,0.030535,-0.0020569,0.0085435,0.034067,0.012341,0.028795,6.8968e-07,0.8,0.4,0
0.041093,-0.00080339,0.030527,-0.0014122,0.0087345,0.000233,0,0,0.056661,-0.026381,0,0.0012116,0,0,0,0.030529,-0.0014139,0.0087345,0.41795,0.012616,0.028269,6.7645e-07,0.84,0.4,0
0.043349,-0.00064186,0.030515,-0.00074397,0.0089313,0.00035363,0,0,0.056118,-0.025156,0,0.0018389,0,0,0,0.030519,-0.00074797,0.0089313,0.64807,0.012901,0.027725,6.6184e-07,0.88,0.4,0
0.045582,-0.00049524,0.030505,-0.00010829,0.0091191,0.00034342,0,0,0.055604,-0.023991,0,0.0017858,0,0,0,0.030509,-0.00011214,0.0091191,0.64263,0.013172,0.027207,6.472e-07,0.92,0.4,0
0.047797,-0.00039309,0.03048,0.00032647,0.009242,0.00020573,0,0,0.055219,-0.02318,0,0.0010698,0,0,0,0.030482,0.00032506,0.009242,0.39089,0.01335,0.026833,6.3549e-07,0.96,0.4,0
0.05,-0.00035652,0.030464,0.00047363,0.0092813,0.00017585,0,0,0.055075,-0.0229,0,0.00091444,0,0,0,0.030465,0.0004726,0.0092813,0.33595,0.013406,0.026701,6.3105e-07,1,0.4,0
0,0,0.040616,0.017407,0.017407,0.002241,0,0,0.060345,-1.301e-18,0,0.011653,0,0,0,0.040831,0.017193,0.017407,5.465,0.025144,0.023532,6.6906e-07,0,0.44,0
0.0024138,0.00046613,0.040294,0.014412,0.016412,0.0020773,0,0,0.062094,-0.0052004,0,0.010802,0,0,0,0.04046,0.014246,0.016412,4.5596,0.023706,0.025201,8.0156e-07,0.04,0.44,0
0.0049675,0.00062737,0.040279,0.011702,0.015594,0.0019411,0,0,0.048051,-0.0067468,0,0.0073049,0,0,0,0.04041,0.01157,0.015594,3.8574,0.022525,0.027073,9.3787e-07,0.08,0.44,0
0.0062578,0.00065042,0.041003,0.0096868,0.015207,0.00069755,0,0,0.033535,-0.0071761,0,0.0018136,0,0,0,0.041018,0.0096713,0.015207,1.2754,0.021965,0.028979,1.0977e-06,0.12,0.44,0
0.0076503,0.00072778,0.041663,0.0082815,0.014984,0.0010973,0,0,0.034684,-0.0087125,0,0.002853,0,0,0,0.041699,0.0082455,0.014984,1.8807,0.021643,0.030646,1.2407e-06,0.16,0.44,0
0.0090326,0.00073345,0.040905,0.0064942,0.01422,0.00084809,0,0,0.03469,-0.010043,0,0.002205,0,0,0,0.040926,0.0064733,0.01422,1.411,0.020539,0.031306,1.2565e-06,0.2,0.44,0
0.010426,0.00069868,0.040639,0.005562,0.01386,0.0009216,0,0,0.034813,-0.010788,0,0.0023962,0,0,0,0.040663,0.0055378,0.01386,1.504,0.020021,0.031792,1.277e-06,0.24,0.44,0
0.011818,0.00062609,0.040216,0.0044916,0.013412,0.0010162,0,0,0.034845,-0.011597,0,0.0026421,0,0,0,0.040245,0.0044628,0.013412,1.628,0.019373,0.032252,1.2863e-06,0.28,0.44,0
0.013213,0.00051229,0.039655,0.0032613,0.012875,0.00098815,0,0,0.034814,-0.012498,0,0.0025692,0,0,0,0.039682,0.0032345,0.012875,1.5541,0.018597,0.03271,1.2851e-06,0.32,0.44,0
0.014603,0.00034419,0.039424,0.0026022,0.012608,0.00057424,0,0,0.034861,-0.013007,0,0.001493,0,0,0,0.039433,0.0025933,0.012608,0.89325,0.018211,0.032993,1.2877e-06,0.36,0.44,0
0.016002,9.6276e-05,0.038071,0.0015871,0.011898,0.00090708,0,0,0.034026,-0.013403,0,0.0023584,0,0,0,0.038094,0.0015646,0.011898,1.4233,0.017185,0.032614,1.1974e-06,0.4,0.44,0
0.017325,-6.8599e-05,0.036228,0.0015102,0.011321,-0.00020542,0,0,0.048223,-0.017006,0,-0.00032732,0,0,0,0.036233,0.0015056,0.011321,-0.27635,0.016353,0.031081,9.9836e-07,0.44,0.44,0
0.01986,-0.00014112,0.036029,0.0035405,0.011871,-0.0003981,0,0,0.062811,-0.021659,0,-0.0020701,0,0,0,0.036034,0.0035357,0.011871,-0.70193,0.017147,0.029236,9.4042e-07,0.48,0.44,0
0.02235,-0.00048538,0.034673,0.0017167,0.010917,-0.0010846,0,0,0.061765,-0.02392,0,-0.0056399,0,0,0,0.034708,0.0016811,0.010917,-1.8829,0.015769,0.029514,8.976e-07,0.52,0.44,0
0.024801,-0.00099024,0.033066,-0.00062739,0.0097316,-0.0013282,0,0,0.060669,-0.026933,0,-0.0069064,0,0,0,0.033118,-0.00067967,0.0097316,-2.2539,0.014057,0.02998,8.4238e-07,0.56,0.44,0
0.027203,-0.0014832,0.031675,-0.0022906,0.0088155,-0.00095562,0,0,0.059436,-0.028876,0,-0.0049692,0,0,0,0.031702,-0.0023174,0.0088155,-1.6103,0.012733,0.030042,7.7557e-07,0.6,0.44,0
0.029556,-0.0018569,0.030792,-0.0025169,0.0084825,-0.00078166,0,0,0.058005,-0.028598,0,-0.0040647,0,0,0,0.03081,-0.0025352,0.0084825,-1.3436,0.012252,0.029427,7.1735e-07,0.64,0.44,0
0.031844,-0.0021007,0.030135,-0.0028195,0.0081946,-0.00079735,0,0,0.057045,-0.028637,0,-0.0041462,0,0,0,0.030154,-0.0028388,0.0081946,-1.3852,0.011837,0.02909,6.7883e-07,0.68,0.44,0
0.034119,-0.0022165,0.029834,-0.0032987,0.0079606,-0.0007488,0,0,0.056871,-0.029274,0,-0.0038938,0,0,0,0.029851,-0.0033156,0.0079606,-1.294,0.011499,0.029209,6.6696e-07,0.72,0.44,0
0.036393,-0.0021906,0.030037,-0.0029505,0.0081259,-0.00044482,0,0,0.056968,-0.028799,0,-0.0023131,0,0,0,0.030043,-0.0029564,0.0081259,-0.77242,0.011737,0.029087,6.7354e-07,0.76,0.44,0
0.038677,-0.0020568,0.030408,-0.0022351,0.008452,-0.00024908,0,0,0.057086,-0.027786,0,-0.0012952,0,0,0,0.03041,-0.002237,0.008452,-0.43716,0.012208,0.028829,6.8482e-07,0.8,0.44,0
0.04096,-0.0018674,0.0306,-0.0018122,0.0086364,5.4797e-05,0,0,0.057106,-0.027166,0,0.00028494,0,0,0,0.0306,-0.0018123,0.0086364,0.096865,0.012475,0.028654,6.892e-07,0.84,0.44,0
0.043245,-0.0016558,0.030901,-0.00088477,0.009005,0.00031174,0,0,0.056931,-0.025713,0,0.0016211,0,0,0,0.030905,-0.00088783,0.009005,0.56186,0.013007,0.02818,6.9009e-07,0.88,0.44,0
0.045515,-0.0014579,0.031014,-2.2103e-05,0.0092975,0.00034347,0,0,0.056462,-0.024231,0,0.001786,0,0,0,0.031018,-2.5903e-05,0.0092975,0.63397,0.01343,0.02759,6.7806e-07,0.92,0.44,0
0.047762,-0.0013198,0.031022,0.00050444,0.009458,0.00021735,0,0,0.056067,-0.023279,0,0.0011302,0,0,0,0.031024,0.00050289,0.009458,0.40803,0.013662,0.027173,6.6588e-07,0.96,0.44,0
0.05,-0.0012712,0.031038,0.00070417,0.0095226,0.00023384,0,0,0.05594,-0.022928,0,0.001216,0,0,0,0.03104,0.00070237,0.0095226,0.44165,0.013755,0.027029,6.6206e-07,1,0.44,0
0,0,0.041647,0.017849,0.017849,0.0012468,0,0,0.061875,6.5052e-19,0,0.0064833,0,0,0,0.041712,0.017784,0.017849,2.9908,0.025781,0.023896,7.008e-07,0,0.48,0
0.002475,0.00025933,0.040889,0.014834,0.016717,0.0011984,0,0,0.062847,-0.0048957,0,0.0062315,0,0,0,0.040944,0.014779,0.016717,2.6279,0.024146,0.025252,8.1058e-07,0.04,0.48,0
0.0050278,0.00039081,0.0416,0.012736,0.016301,0.00084962,0,0,0.048844,-0.0061796,0,0.0035303,0,0,0,0.041627,0.012709,0.016301,1.7141,0.023546,0.027314,9.8602e-07,0.08,0.48,0
0.0063825,0.0003819,0.041894,0.01024,0.01564,0.0011171,0,0,0.03413,-0.00702,0,0.0029046,0,0,0,0.041933,0.010201,0.01564,2.0188,0.022591,0.029393,1.1551e-06,0.12,0.48,0
0.0077581,0.00036657,0.0418,0.0080043,0.014941,0.0010531,0,0,0.034917,-0.0090182,0,0.0027381,0,0,0,0.041833,0.0079716,0.014941,1.7831,0.021582,0.030971,1.2691e-06,0.16,0.48,0
0.0091759,0.00032788,0.041984,0.0065254,0.014553,0.0011308,0,0,0.035661,-0.010436,0,0.0029402,0,0,0,0.04202,0.0064893,0.014553,1.8248,0.021021,0.032264,1.3685e-06,0.2,0.48,0
0.010611,0.00025297,0.041812,0.0053166,0.014139,0.0012414,0,0,0.035976,-0.011469,0,0.0032276,0,0,0,0.041855,0.0052745,0.014139,1.9459,0.020423,0.033052,1.4145e-06,0.24,0.48,0
0.012054,0.00014901,0.041438,0.0042633,0.01371,0.0014376,0,0,0.036045,-0.012281,0,0.0037377,0,0,0,0.041493,0.0042078,0.01371,2.2113,0.019804,0.033559,1.4291e-06,0.28,0.48,0
0.013495,1.0788e-05,0.040777,0.0033105,0.013226,0.0015329,0,0,0.035816,-0.01289,0,0.0039857,0,0,0,0.040839,0.0032479,0.013226,2.3391,0.019104,0.033728,1.4047e-06,0.32,0.48,0
0.014919,-0.0001798,0.0397,0.0025613,0.012679,0.0015425,0,0,0.035128,-0.013152,0,0.0040104,0,0,0,0.039764,0.0024973,0.012679,2.3742,0.018313,0.033363,1.3255e-06,0.36,0.48,0
0.016305,-0.0004227,0.039023,0.0020842,0.012332,0.0013495,0,0,0.034698,-0.013322,0,0.0035088,0,0,0,0.039072,0.002035,0.012332,2.0896,0.017813,0.033112,1.2747e-06,0.4,0.48,0
0.017695,-0.00071117,0.03754,0.0025984,0.012041,0.0013821,0,0,0.048919,-0.016368,0,0.0048521,0,0,0,0.037596,0.0025421,0.012041,2.2112,0.017393,0.031459,1.0961e-06,0.44,0.48,0
0.020218,-0.00098502,0.036729,0.0042867,0.012305,0.00092115,0,0,0.063504,-0.020847,0,0.00479,0,0,0,0.036756,0.0042606,0.012305,1.6251,0.017774,0.029313,9.7263e-07,0.48,0.48,0
0.022775,-0.0014364,0.034724,0.0010704,0.010738,0.0005672,0,0,0.062362,-0.025136,0,0.0029494,0,0,0,0.034733,0.0010608,0.010738,0.96531,0.015511,0.030027,9.1915e-07,0.52,0.48,0
0.025207,-0.0020793,0.03276,-0.0010965,0.009499,0.0013371,0,0,0.060478,-0.027548,0,0.0069531,0,0,0,0.032812,-0.0011492,0.009499,2.2582,0.013721,0.030086,8.3101e-07,0.56,0.48,0
0.027614,-0.0026503,0.030846,-0.0017295,0.0087349,0.00083052,0,0,0.057488,-0.027207,0,0.0043187,0,0,0,0.030867,-0.0017506,0.0087349,1.4595,0.012617,0.028842,7.0581e-07,0.6,0.48,0
0.029806,-0.0029728,0.02855,-0.0019988,0.0079654,0.00035293,0,0,0.05352,-0.025907,0,0.0018353,0,0,0,0.028554,-0.0020028,0.0079654,0.66182,0.011506,0.026991,5.653e-07,0.64,0.48,0
0.031895,-0.0032118,0.027682,-0.0022802,0.0076206,-0.00046633,0,0,0.05216,-0.025742,0,-0.0024249,0,0,0,0.02769,-0.0022874,0.0076206,-0.89145,0.011008,0.026453,5.2084e-07,0.68,0.48,0
0.033979,-0.0033784,0.02826,-0.0026315,0.0076885,-0.0011076,0,0,0.053485,-0.026832,0,-0.0057597,0,0,0,0.028299,-0.0026712,0.0076885,-2.0509,0.011106,0.027307,5.6123e-07,0.72,0.48,0
0.036174,-0.0033404,0.028998,-0.0030067,0.0077973,-0.0017594,0,0,0.055121,-0.028091,0,-0.0091488,0,0,0,0.029094,-0.0031032,0.0077973,-3.1371,0.011263,0.028364,6.1552e-07,0.76,0.48,0
0.038389,-0.0031693,0.029814,-0.0032038,0.0079831,-0.001057,0,0,0.056761,-0.029086,0,-0.0054962,0,0,0,0.029848,-0.0032376,0.0079831,-1.8316,0.011531,0.029143,6.6549e-07,0.8,0.48,0
0.040715,-0.0029767,0.031073,-0.0024947,0.0085734,-0.00033957,0,0,0.058499,-0.028777,0,-0.0017657,0,0,0,0.031076,-0.0024981,0.0085734,-0.57952,0.012384,0.029633,7.3495e-07,0.84,0.48,0
0.043069,-0.0026989,0.031688,-0.00097335,0.0092143,7.7856e-05,0,0,0.058431,-0.026488,0,0.00040485,0,0,0,0.031688,-0.00097353,0.0092143,0.13658,0.01331,0.028945,7.4536e-07,0.88,0.48,0
0.045389,-0.0024337,0.031778,-8.0648e-05,0.009509,0.00026203,0,0,0.057898,-0.024933,0,0.0013626,0,0,0,0.03178,-8.2803e-05,0.009509,0.47121,0.013735,0.028313,7.3064e-07,0.92,0.48,0
0.047701,-0.0022554,0.03196,0.00068396,0.0097931,0.0001844,0,0,0.057633,-0.023684,0,0.00095887,0,0,0,0.031961,0.00068287,0.0097931,0.33779,0.014146,0.027863,7.2381e-07,0.96,0.48,0
0.05,-0.0021908,0.031981,0.00092624,0.0098721,0.00031096,0,0,0.057483,-0.023259,0,0.001617,0,0,0,0.031984,0.00092313,0.0098721,0.57364,0.01426,0.027693,7.1912e-07,1,0.48,0
0,0,0.042429,0.018184,0.018184,0.00035803,0,0,0.063037,0,0,0.0018618,0,0,0,0.042434,0.018179,0.018184,0.84586,0.026266,0.024253,7.3269e-07,0,0.52,0
0.0025215,7.4471e-05,0.041595,0.014885,0.016944,0.00048658,0,0,0.064092,-0.0053531,0,0.0025302,0,0,0,0.041604,0.014876,0.016944,1.0433,0.024475,0.025756,8.5848e-07,0.04,0.52,0
0.0051274,0.000133,0.04238,0.012668,0.016514,0.00077245,0,0,0.049912,-0.0066671,0,0.0031057,0,0,0,0.042401,0.012647,0.016514,1.5053,0.023854,0.028036,1.0598e-06,0.08,0.52,0
0.0065145,8.882e-05,0.042788,0.010223,0.015903,0.00063519,0,0,0.03495,-0.007384,0,0.0016515,0,0,0,0.0428,0.010211,0.015903,1.117,0.022971,0.030149,1.24e-06,0.12,0.52,0
0.0079234,6.322e-06,0.042753,0.0078686,0.015186,0.00091238,0,0,0.035836,-0.0095131,0,0.0023722,0,0,0,0.042777,0.0078448,0.015186,1.4972,0.021936,0.031901,1.3743e-06,0.16,0.52,0
0.0093814,-0.00010141,0.043092,0.0063421,0.01483,0.001146,0,0,0.036741,-0.011035,0,0.0029795,0,0,0,0.043128,0.0063064,0.01483,1.7843,0.021422,0.033386,1.4995e-06,0.2,0.52,0
0.010863,-0.00021881,0.043088,0.0051086,0.014459,0.0014484,0,0,0.037218,-0.012155,0,0.0037658,0,0,0,0.043143,0.0050534,0.014459,2.1808,0.020885,0.034366,1.5701e-06,0.24,0.52,0
0.012359,-0.00035639,0.042911,0.0040298,0.014082,0.0017241,0,0,0.037477,-0.013068,0,0.0044826,0,0,0,0.042987,0.0039534,0.014082,2.534,0.020341,0.035083,1.6104e-06,0.28,0.52,0
0.013861,-0.00051894,0.042508,0.0030891,0.013679,0.0021174,0,0,0.037478,-0.013767,0,0.0055051,0,0,0,0.042622,0.0029757,0.013679,3.0658,0.019759,0.035525,1.6175e-06,0.32,0.52,0
0.015357,-0.000708,0.041569,0.0023374,0.013172,0.0024558,0,0,0.036916,-0.014085,0,0.006385,0,0,0,0.041722,0.0021842,0.013172,3.568,0.019026,0.035349,1.5515e-06,0.36,0.52,0
0.016814,-0.0009695,0.04105,0.0022516,0.012991,0.0026027,0,0,0.036478,-0.013961,0,0.006767,0,0,0,0.041224,0.0020778,0.012991,3.8207,0.018764,0.034991,1.5003e-06,0.4,0.52,0
0.018275,-0.001378,0.04001,0.0033684,0.013014,0.0019039,0,0,0.051927,-0.016718,0,0.0065072,0,0,0,0.040115,0.0032634,0.013014,2.8753,0.018797,0.033136,1.3063e-06,0.44,0.52,0
0.020968,-0.0018089,0.038888,0.0041257,0.012904,0.001688,0,0,0.067559,-0.022824,0,0.0087778,0,0,0,0.03897,0.0040439,0.012904,2.7735,0.018639,0.031447,1.18e-06,0.48,0.52,0
0.02368,-0.0024963,0.039071,0.0013747,0.012134,0.002648,0,0,0.070037,-0.027973,0,0.01377,0,0,0,0.039256,0.0011896,0.012134,3.9987,0.017526,0.033944,1.3274e-06,0.52,0.52,0
0.026571,-0.0031941,0.042538,-0.0015952,0.012283,0.0031079,0,0,0.055276,-0.0246,0,0.011614,0,0,0,0.042758,-0.0018147,0.012283,4.0882,0.017742,0.039468,2.0315e-06,0.56,0.52,0
0.028442,-0.0036598,0.037512,-0.0012455,0.01088,0.0021472,0,0,0.046163,-0.022073,0,0.0084633,0,0,0,0.037644,-0.0013774,0.01088,3.4787,0.015716,0.034583,1.6766e-06,0.6,0.52,0
0.030264,-0.0039295,0.036576,-0.0015093,0.01052,0.0013304,0,0,0.045163,-0.021617,0,0.0047569,0,0,0,0.036622,-0.0015559,0.01052,2.0332,0.015195,0.033809,1.56e-06,0.64,0.52,0
0.032055,-0.00416,0.035508,-0.0018382,0.010101,0.00025981,0,0,0.04404,-0.021448,0,0.00032053,0,0,0,0.035516,-0.0018461,0.010101,0.16656,0.01459,0.03306,1.4373e-06,0.68,0.52,0
0.033787,-0.0043631,0.03397,-0.0023952,0.0094725,-0.00053745,0,0,0.042463,-0.021582,0,-0.0034649,0,0,0,0.034022,-0.0024469,0.0094725,-1.4425,0.013683,0.032227,1.2841e-06,0.72,0.52,0
0.035452,-0.0044378,0.036223,-0.0036027,0.0097861,-0.00094983,0,0,0.047925,-0.023811,0,-0.0052069,0,0,0,0.036295,-0.0036749,0.0097861,-1.8314,0.014136,0.035227,1.3346e-06,0.76,0.52,0
0.037873,-0.0043837,0.032703,-0.0021598,0.009163,-0.0014397,0,0,0.061205,-0.02944,0,-0.0074862,0,0,0,0.032763,-0.0022192,0.009163,-2.3606,0.013236,0.030905,8.5215e-07,0.8,0.52,0
0.040349,-0.0041696,0.032037,-0.003152,0.0086655,-0.0016416,0,0,0.060766,-0.030726,0,-0.0085362,0,0,0,0.032114,-0.0032285,0.0086655,-2.6651,0.012517,0.031148,8.2396e-07,0.84,0.52,0
0.042735,-0.0037749,0.032364,-0.0019124,0.0091355,-0.00029002,0,0,0.060394,-0.028725,0,-0.0015081,0,0,0,0.032367,-0.0019148,0.0091355,-0.48475,0.013196,0.030307,8.1552e-07,0.88,0.52,0
0.04518,-0.0034525,0.033324,-0.00015025,0.0099521,3.5966e-05,0,0,0.060767,-0.026266,0,0.00018702,0,0,0,0.033324,-0.00015029,0.0099521,0.06156,0.014375,0.029739,8.4412e-07,0.92,0.52,0
0.047596,-0.0032145,0.033438,0.00078037,0.010266,0.00014994,0,0,0.060248,-0.024661,0,0.00077968,0,0,0,0.033439,0.00077968,0.010266,0.26305,0.014828,0.0291,8.2706e-07,0.96,0.52,0
0.05,-0.0031319,0.033526,0.0011805,0.010412,0.00039713,0,0,0.060096,-0.024002,0,0.0020651,0,0,0,0.033531,0.0011756,0.010412,0.70332,0.015039,0.028867,8.2254e-07,1,0.52,0
0,0,0.042815,0.018349,0.018349,-0.00081212,0,0,0.063611,-1.301e-18,0,-0.004223,0,0,0,0.042842,0.018322,0.018349,-1.8991,0.026505,0.024506,7.5588e-07,0,0.56,0
0.0025444,-0.00016892,0.042408,0.014628,0.017111,-0.00057734,0,0,0.065773,-0.006456,0,-0.0030022,0,0,0,0.04242,0.014616,0.017111,-1.1901,0.024716,0.026645,9.4287e-07,0.04,0.56,0
0.0052619,-0.00014256,0.042465,0.011323,0.016136,-0.00053572,0,0,0.051211,-0.0083433,0,-0.0014712,0,0,0,0.04248,0.011307,0.016136,-0.93701,0.023308,0.029088,1.1382e-06,0.08,0.56,0
0.0066413,-0.00020882,0.043629,0.0096128,0.015973,0.00093765,0,0,0.035953,-0.0082677,0,0.0024379,0,0,0,0.043655,0.0095869,0.015973,1.5777,0.023071,0.031366,1.3662e-06,0.12,0.56,0
0.0081381,-0.00039449,0.044575,0.0079163,0.015747,0.00064309,0,0,0.037476,-0.01018,0,0.001672,0,0,0,0.044586,0.007905,0.015747,1.0047,0.022746,0.033456,1.5729e-06,0.16,0.56,0
0.0096394,-0.0005549,0.044163,0.0059614,0.015037,0.0011837,0,0,0.037864,-0.011799,0,0.0030776,0,0,0,0.0442,0.0059247,0.015037,1.773,0.021721,0.03463,1.6454e-06,0.2,0.56,0
0.011167,-0.00071946,0.044354,0.0049906,0.014804,0.0014497,0,0,0.038416,-0.012757,0,0.0037692,0,0,0,0.044408,0.0049373,0.014804,2.1063,0.021383,0.035579,1.7274e-06,0.24,0.56,0
0.012713,-0.00089643,0.044509,0.0038739,0.014515,0.0017198,0,0,0.038993,-0.013833,0,0.0044714,0,0,0,0.044582,0.0038012,0.014515,2.4191,0.020966,0.036619,1.8132e-06,0.28,0.56,0
0.014287,-0.0010906,0.044625,0.0025895,0.014164,0.0021209,0,0,0.039599,-0.015047,0,0.0055142,0,0,0,0.044731,0.0024827,0.014164,2.8811,0.020459,0.037787,1.9045e-06,0.32,0.56,0
0.01588,-0.0013066,0.045338,0.0022746,0.014284,0.002896,0,0,0.04037,-0.015612,0,0.0075297,0,0,0,0.045532,0.0020807,0.014284,3.8302,0.020632,0.038816,2.0332e-06,0.36,0.56,0
0.017516,-0.0015396,0.044355,0.0017508,0.013832,0.0024723,0,0,0.03968,-0.015705,0,0.006428,0,0,0,0.044498,0.0016078,0.013832,3.31,0.019979,0.038272,1.92e-06,0.4,0.56,0
0.019055,-0.0020486,0.042876,0.002908,0.013735,0.003363,0,0,0.056533,-0.018767,0,0.010604,0,0,0,0.043219,0.0025655,0.013735,4.5204,0.01984,0.036467,1.6598e-06,0.44,0.56,0
0.022039,-0.0028109,0.044678,0.0047743,0.014835,0.0029038,0,0,0.077589,-0.026159,0,0.0151,0,0,0,0.044888,0.0045641,0.014835,4.1403,0.021429,0.036295,1.8087e-06,0.48,0.56,0
0.025262,-0.0036743,0.049524,0.0011512,0.015203,0.0035199,0,0,0.062504,-0.025084,0,0.013026,0,0,0,0.04978,0.00089544,0.015203,4.1958,0.021959,0.043535,3.0591e-06,0.52,0.56,0
0.027401,-0.0041127,0.038972,-0.00091391,0.011418,0.0018337,0,0,0.049188,-0.021772,0,0.0072118,0,0,0,0.039064,-0.0010055,0.011418,2.837,0.016492,0.035527,1.6505e-06,0.56,0.56,0
0.029026,-0.0044161,0.044573,-0.0013339,0.012972,0.0022149,0,0,0.041081,-0.018597,0,0.0057587,0,0,0,0.044679,-0.0014406,0.012972,2.7559,0.018737,0.040866,2.0924e-06,0.6,0.56,0
0.030687,-0.0047022,0.045226,-0.0011539,0.013222,0.0017564,0,0,0.041606,-0.018688,0,0.0045666,0,0,0,0.045293,-0.0012204,0.013222,2.1656,0.019098,0.041235,2.1685e-06,0.64,0.56,0
0.032355,-0.0049276,0.044616,-0.0014294,0.012956,0.0015035,0,0,0.041158,-0.018701,0,0.0039092,0,0,0,0.044665,-0.0014785,0.012956,1.8683,0.018714,0.040884,2.0921e-06,0.68,0.56,0
0.03398,-0.005105,0.042978,-0.0020873,0.012267,0.0011317,0,0,0.039924,-0.018661,0,0.0029425,0,0,0,0.043006,-0.0021157,0.012267,1.4377,0.017719,0.039924,1.8961e-06,0.72,0.56,0
0.035548,-0.0053178,0.036187,-0.0017893,0.010319,0.00063508,0,0,0.045962,-0.021241,0,0.00096061,0,0,0,0.036225,-0.0018278,0.010319,0.50736,0.014906,0.033667,1.3721e-06,0.76,0.56,0
0.037522,-0.0055244,0.039154,-0.0017848,0.011211,-0.00034475,0,0,0.048435,-0.024024,0,-0.0034599,0,0,0,0.039235,-0.0018659,0.011211,-1.1953,0.016193,0.036407,1.9205e-06,0.8,0.56,0
0.039423,-0.0054348,0.041721,-0.0037481,0.011392,-0.00084244,0,0,0.055089,-0.027012,0,-0.0042446,0,0,0,0.041756,-0.0037834,0.011392,-1.3304,0.016455,0.040166,2.0093e-06,0.84,0.56,0
0.042231,-0.0049969,0.036275,-0.0022294,0.010214,-0.0010619,0,0,0.06776,-0.032352,0,-0.0055219,0,0,0,0.036305,-0.0022587,0.010214,-1.5785,0.014753,0.034084,1.154e-06,0.88,0.56,0
0.044844,-0.004535,0.035514,-0.00064717,0.01046,1.7811e-05,0,0,0.06514,-0.028879,0,9.2616e-05,0,0,0,0.035514,-0.00064718,0.01046,0.02822,0.015109,0.032084,1.0363e-06,0.92,0.56,0
0.047442,-0.0042283,0.035854,0.0010295,0.011065,9.8431e-05,0,0,0.064451,-0.026092,0,0.00051184,0,0,0,0.035854,0.0010292,0.011065,0.16195,0.015983,0.031048,1.0132e-06,0.96,0.56,0
0.05,-0.0041109,0.035698,0.0013215,0.011106,0.00056466,0,0,0.063939,-0.025439,0,0.0029362,0,0,0,0.035707,0.0013123,0.011106,0.9408,0.016042,0.030693,9.913e-07,1,0.56,0
0,0,0.040786,0.01748,0.01748,-0.002125,0,0,0.060597,4.3368e-19,0,-0.01105,0,0,0,0.040979,0.017288,0.01748,-5.1673,0.025249,0.023595,6.7454e-07,0,0.6,0
0.0024239,-0.00044201,0.040768,0.014202,0.016491,-0.0021506,0,0,0.06312,-0.005952,0,-0.011183,0,0,0,0.040941,0.014029,0.016491,-4.5983,0.02382,0.025769,8.5189e-07,0.04,0.6,0
0.0050496,-0.00053447,0.048081,0.012648,0.018219,-0.0025169,0,0,0.053745,-0.0095849,0,-0.009958,0,0,0,0.048275,0.012454,0.018219,-4.3469,0.026316,0.033318,1.9835e-06,0.08,0.6,0
0.0069614,-0.00057259,0.038589,0.0081687,0.014027,0.00034746,0,0,0.043879,-0.010367,0,0.0010225,0,0,0,0.038594,0.0081638,0.014027,0.56805,0.020262,0.027963,1.1423e-06,0.12,0.6,0
0.0084032,-0.0008081,0.044003,0.006804,0.015242,0.0009624,0,0,0.037389,-0.01097,0,0.0025023,0,0,0,0.044028,0.0067791,0.015242,1.481,0.022016,0.033821,1.5753e-06,0.16,0.6,0
0.0099525,-0.0010453,0.045183,0.005988,0.015351,0.00092785,0,0,0.038781,-0.012172,0,0.0024124,0,0,0,0.045205,0.0059661,0.015351,1.3553,0.022174,0.03549,1.7659e-06,0.2,0.6,0
0.011506,-0.0012394,0.04509,0.0047279,0.014946,0.0012084,0,0,0.039188,-0.013283,0,0.0031419,0,0,0,0.045126,0.0046918,0.014946,1.7134,0.021588,0.036407,1.8317e-06,0.24,0.6,0
0.013088,-0.0014631,0.045598,0.0036275,0.014768,0.0013622,0,0,0.04008,-0.014482,0,0.0035418,0,0,0,0.045643,0.0035834,0.014768,1.857,0.021331,0.037731,1.9636e-06,0.28,0.6,0
0.014712,-0.0017227,0.046678,0.0024822,0.014748,0.0017061,0,0,0.041509,-0.015946,0,0.0044359,0,0,0,0.046744,0.0024165,0.014748,2.2075,0.021303,0.039628,2.1838e-06,0.32,0.6,0
0.016408,-0.0019569,0.046579,0.0010465,0.014288,0.0018333,0,0,0.041979,-0.017213,0,0.0047665,0,0,0,0.046652,0.00097285,0.014288,2.302,0.020638,0.04069,2.2524e-06,0.36,0.6,0
0.01807,-0.0022259,0.042592,0.0017823,0.013312,0.0017107,0,0,0.052592,-0.020551,0,0.005691,0,0,0,0.042667,0.0017078,0.013312,2.2734,0.019229,0.036566,1.9688e-06,0.4,0.6,0
0.020395,-0.0028794,0.055144,0.0053492,0.018148,0.0050748,0,0,0.067133,-0.022892,0,0.017808,0,0,0,0.055659,0.0048338,0.018148,5.6531,0.026214,0.04565,3.9886e-06,0.44,0.6,0
0.023802,-0.0039016,0.054988,0.0051207,0.018032,0.0051274,0,0,0.067072,-0.023079,0,0.017881,0,0,0,0.055515,0.0045939,0.018032,5.6795,0.026047,0.04571,3.979e-06,0.48,0.6,0
0.026123,-0.0045903,0.042259,0.0010445,0.012991,0.001731,0,0,0.052554,-0.021256,0,0.0055754,0,0,0,0.042337,0.00096603,0.012991,2.2266,0.018765,0.036861,1.965e-06,0.52,0.6,0
0.027787,-0.0048881,0.04596,-0.00075915,0.01356,0.0021105,0,0,0.042119,-0.018615,0,0.0054872,0,0,0,0.046055,-0.0008543,0.01356,2.5812,0.019587,0.041618,2.2608e-06,0.56,0.6,0
0.029492,-0.0051476,0.045881,-0.00043305,0.013634,0.0021717,0,0,0.04192,-0.018288,0,0.0056463,0,0,0,0.045982,-0.00053466,0.013634,2.6788,0.019694,0.041298,2.2343e-06,0.6,0.6,0
0.031141,-0.0054245,0.044823,-0.00049417,0.013298,0.0020649,0,0,0.040981,-0.01793,0,0.0053687,0,0,0,0.044916,-0.00058807,0.013298,2.6035,0.019209,0.040393,2.0857e-06,0.64,0.6,0
0.032771,-0.0056561,0.044582,-0.00084657,0.013121,0.0021434,0,0,0.040899,-0.018157,0,0.0055728,0,0,0,0.044682,-0.00094748,0.013121,2.6953,0.018952,0.040473,2.0702e-06,0.68,0.6,0
0.034413,-0.005856,0.045081,-0.0014348,0.013094,0.0020225,0,0,0.041583,-0.018887,0,0.0052586,0,0,0,0.045169,-0.0015226,0.013094,2.485,0.018913,0.041367,2.165e-06,0.72,0.6,0
0.036097,-0.0061068,0.044521,-0.0019096,0.012784,0.0022734,0,0,0.041259,-0.019101,0,0.0059109,0,0,0,0.044633,-0.0020207,0.012784,2.7965,0.018465,0.041292,2.1118e-06,0.76,0.6,0
0.037714,-0.0063056,0.043336,-0.0022532,0.012325,0.0012881,0,0,0.040315,-0.018952,0,0.003349,0,0,0,0.043373,-0.0022896,0.012325,1.6171,0.017803,0.040389,1.9513e-06,0.8,0.6,0
0.039323,-0.0064229,0.037292,-0.002671,0.010386,0.00093913,0,0,0.047919,-0.02315,0,0.0021872,0,0,0,0.037335,-0.0027141,0.010386,0.98293,0.015003,0.035368,1.523e-06,0.84,0.6,0
0.041393,-0.0063631,0.04579,-0.0029119,0.012863,0.00023119,0,0,0.059726,-0.028317,0,-0.00016196,0,0,0,0.045804,-0.0029257,0.012863,0.064394,0.018581,0.043065,2.6185e-06,0.88,0.6,0
0.044419,-0.0057629,0.039774,-0.00045709,0.011795,-0.00017759,0,0,0.072746,-0.031856,0,-0.00092349,0,0,0,0.039775,-0.00045787,0.011795,-0.25291,0.017038,0.035719,1.4459e-06,0.92,0.6,0
0.047213,-0.0053019,0.038835,0.0011764,0.012004,7.7989e-05,0,0,0.069763,-0.02815,0,0.00040554,0,0,0,0.038835,0.0011763,0.012004,0.11865,0.017338,0.033581,1.2852e-06,0.96,0.6,0
0.05,-0.0051671,0.038781,0.0011608,0.011983,0.00064835,0,0,0.069676,-0.028136,0,0.0033714,0,0,0,0.038792,0.0011497,0.011983,0.98705,0.017308,0.033564,1.2819e-06,1,0.6,0
0,0,0.036755,0.015752,0.015752,-0.0031014,0,0,0.054607,-3.2526e-19,0,-0.016127,0,0,0,0.037203,0.015304,0.015752,-8.2267,0.022753,0.021679,5.2252e-07,0,0.64,0
0.0021843,-0.00064508,0.036289,0.013393,0.014904,-0.0031524,0,0,0.055599,-0.0039303,0,-0.016392,0,0,0,0.036715,0.012967,0.014904,-7.6979,0.021528,0.022841,5.9718e-07,0.04,0.64,0
0.0044479,-0.00090084,0.03804,0.011287,0.014798,-0.0030936,0,0,0.060429,-0.0091291,0,-0.016087,0,0,0,0.038393,0.010934,0.014798,-6.5109,0.021375,0.025746,8.1029e-07,0.08,0.64,0
0.0070186,-0.0010127,0.044636,0.0096607,0.016289,-0.0024521,0,0,0.051297,-0.011732,0,-0.010224,0,0,0,0.04484,0.0094565,0.016289,-4.3837,0.023529,0.032511,1.7081e-06,0.12,0.64,0
0.008811,-0.001272,0.036169,0.0054805,0.012495,-0.00081356,0,0,0.041979,-0.01227,0,-0.0041403,0,0,0,0.036223,0.0054258,0.012495,-2.0581,0.018048,0.027942,1.0762e-06,0.16,0.64,0
0.010264,-0.0015287,0.043626,0.0048289,0.014536,-0.0003579,0,0,0.037816,-0.01262,0,-0.00093054,0,0,0,0.043629,0.0048256,0.014536,-0.5285,0.020997,0.034974,1.6395e-06,0.2,0.64,0
0.011836,-0.0017821,0.045829,0.0038658,0.014908,0.00034914,0,0,0.040197,-0.014356,0,0.00090776,0,0,0,0.045832,0.0038629,0.014908,0.47666,0.021534,0.037681,1.9726e-06,0.24,0.64,0
0.013479,-0.002055,0.046467,0.0026837,0.014745,0.0010587,0,0,0.041238,-0.01568,0,0.0027527,0,0,0,0.046493,0.0026581,0.014745,1.3844,0.021299,0.039214,2.134e-06,0.28,0.64,0
0.015135,-0.0023662,0.045688,0.0012929,0.014094,0.0018551,0,0,0.041071,-0.016642,0,0.0048231,0,0,0,0.045765,0.0012156,0.014094,2.3886,0.020358,0.039709,2.1124e-06,0.32,0.64,0
0.016765,-0.0026837,0.039809,0.00043496,0.012073,0.0018283,0,0,0.049542,-0.020574,0,0.0074092,0,0,0,0.039906,0.00033745,0.012073,2.9268,0.017439,0.035201,1.6944e-06,0.36,0.64,0
0.018923,-0.0031158,0.050372,0.0020383,0.015723,0.0036413,0,0,0.063115,-0.024457,0,0.013682,0,0,0,0.050647,0.0017626,0.015723,4.3797,0.022711,0.043617,3.1571e-06,0.4,0.64,0
0.022181,-0.0039649,0.045189,0.004956,0.015043,0.0031834,0,0,0.078378,-0.026227,0,0.016554,0,0,0,0.045439,0.0047056,0.015043,4.4963,0.021729,0.036674,1.8711e-06,0.44,0.64,0
0.025193,-0.004741,0.043213,0.0027981,0.013803,0.0036539,0,0,0.057056,-0.019075,0,0.011799,0,0,0,0.043595,0.0024158,0.013803,4.8839,0.019938,0.036921,1.711e-06,0.48,0.64,0
0.026746,-0.0053089,0.044312,0.00070077,0.013504,0.0028526,0,0,0.04005,-0.016644,0,0.0074169,0,0,0,0.044497,0.00051497,0.013504,3.7266,0.019505,0.039139,1.975e-06,0.52,0.64,0
0.028397,-0.0056019,0.045021,0.00029356,0.013594,0.0033808,0,0,0.040855,-0.017291,0,0.0087902,0,0,0,0.045275,3.9452e-05,0.013594,4.2983,0.019636,0.04021,2.1048e-06,0.56,0.64,0
0.030014,-0.0058791,0.044154,-0.00044267,0.013113,0.0027012,0,0,0.040353,-0.017623,0,0.007023,0,0,0,0.044317,-0.00060568,0.013113,3.4535,0.018942,0.039874,2.0044e-06,0.6,0.64,0
0.031625,-0.0061366,0.044017,-0.00042278,0.013078,0.0023721,0,0,0.04022,-0.017551,0,0.0061674,0,0,0,0.044143,-0.00054904,0.013078,3.0468,0.018891,0.039675,1.9785e-06,0.64,0.64,0
0.033232,-0.0063802,0.043963,-0.0008153,0.012944,0.0021464,0,0,0.040324,-0.017888,0,0.0055808,0,0,0,0.044066,-0.00091795,0.012944,2.7381,0.018697,0.039901,1.9849e-06,0.68,0.64,0
0.034851,-0.006616,0.043824,-0.0015635,0.012678,0.0018794,0,0,0.04049,-0.018514,0,0.0048864,0,0,0,0.043902,-0.0016411,0.012678,2.367,0.018313,0.040337,1.9949e-06,0.72,0.64,0
0.036471,-0.0068459,0.044175,-0.0012435,0.012879,0.0016131,0,0,0.040684,-0.01836,0,0.0041942,0,0,0,0.044232,-0.0013008,0.012879,2.0316,0.018604,0.040356,2.0246e-06,0.76,0.64,0
0.038106,-0.0070405,0.044971,-0.0012518,0.013116,0.0017966,0,0,0.041412,-0.018678,0,0.0046713,0,0,0,0.04504,-0.0013215,0.013116,2.2226,0.018945,0.041092,2.1375e-06,0.8,0.64,0
0.039784,-0.0072247,0.044772,-0.0024782,0.012688,0.0021142,0,0,0.041709,-0.019716,0,0.0054968,0,0,0,0.044866,-0.0025727,0.012688,2.5568,0.018327,0.041945,2.1687e-06,0.84,0.64,0
0.041443,-0.007379,0.040427,-0.0016466,0.011634,0.0019889,0,0,0.051595,-0.023614,0,0.0073264,0,0,0,0.040521,-0.0017411,0.011634,2.76,0.016805,0.037414,1.8521e-06,0.88,0.64,0
0.043709,-0.0070835,0.05027,-0.0013165,0.014686,-2.9011e-05,0,0,0.064189,-0.028492,0,-0.00046825,0,0,0,0.050271,-0.0013181,0.014686,-0.10992,0.021213,0.04574,3.4026e-06,0.92,0.64,0
0.046879,-0.0064804,0.04399,0.0018242,0.013744,0.00048048,0,0,0.078639,-0.030992,0,0.0024985,0,0,0,0.043995,0.0018187,0.013744,0.65277,0.019853,0.037658,1.844e-06,0.96,0.64,0
0.05,-0.0063618,0.043482,0.0014292,0.013473,0.00057009,0,0,0.078023,-0.031315,0,0.0029645,0,0,0,0.04349,0.0014215,0.013473,0.77654,0.019462,0.037523,1.7998e-06,1,0.64,0
0,0,0.033878,0.014519,0.014519,-0.0036367,0,0,0.050333,-8.6736e-19,0,-0.018911,0,0,0,0.034539,0.013858,0.014519,-10.296,0.020972,0.020358,4.3179e-07,0,0.68,0
0.0020133,-0.00075643,0.03398,0.013096,0.014123,-0.0036953,0,0,0.051629,-0.0026703,0,-0.019216,0,0,0,0.034614,0.012461,0.014123,-9.7441,0.020399,0.021371,4.911e-07,0.04,0.68,0
0.0041303,-0.0012648,0.033902,0.01028,0.013255,-0.0032234,0,0,0.053683,-0.0077337,0,-0.016762,0,0,0,0.034334,0.009848,0.013255,-7.6326,0.019145,0.022973,5.7677e-07,0.08,0.68,0
0.0063079,-0.0015403,0.035179,0.0081088,0.012986,-0.0037639,0,0,0.057701,-0.012682,0,-0.019572,0,0,0,0.035693,0.0075952,0.012986,-7.7702,0.018758,0.025827,7.565e-07,0.12,0.68,0
0.0087464,-0.0017763,0.040279,0.006541,0.014046,-0.0034736,0,0,0.047683,-0.01321,0,-0.013771,0,0,0,0.040659,0.006161,0.014046,-6.1597,0.020289,0.031312,1.3913e-06,0.16,0.68,0
0.010388,-0.0020549,0.036443,0.0043041,0.012224,-0.0021531,0,0,0.041979,-0.014014,0,-0.0089306,0,0,0,0.036627,0.0041201,0.012224,-4.4735,0.017657,0.02931,1.2732e-06,0.2,0.68,0
0.012105,-0.0023878,0.037405,0.0030511,0.012137,-0.00075615,0,0,0.043798,-0.016051,0,-0.0031452,0,0,0,0.037427,0.0030295,0.012137,-1.4921,0.017531,0.03087,1.4359e-06,0.24,0.68,0
0.013892,-0.0027175,0.038135,0.0019165,0.012016,0.00073411,0,0,0.045274,-0.017977,0,0.0028235,0,0,0,0.038151,0.0019004,0.012016,1.27,0.017356,0.032404,1.5859e-06,0.28,0.68,0
0.015727,-0.003054,0.038867,0.0010247,0.011968,0.0019691,0,0,0.046626,-0.019854,0,0.0080828,0,0,0,0.038992,0.00089977,0.011968,3.3984,0.017287,0.033956,1.7388e-06,0.32,0.68,0
0.017622,-0.0035547,0.043862,-6.2461e-05,0.01314,0.0032154,0,0,0.056184,-0.023438,0,0.012266,0,0,0,0.044102,-0.00030164,0.01314,4.2946,0.01898,0.039446,2.1496e-06,0.36,0.68,0
0.020573,-0.0042709,0.040139,0.0019543,0.012628,0.0030419,0,0,0.071529,-0.027752,0,0.015818,0,0,0,0.04038,0.0017135,0.012628,4.5263,0.01824,0.034528,1.4239e-06,0.4,0.68,0
0.023344,-0.0049776,0.039696,0.0042172,0.013174,0.0022036,0,0,0.068957,-0.023288,0,0.011459,0,0,0,0.039832,0.0040808,0.013174,3.5405,0.019029,0.032183,1.2624e-06,0.44,0.68,0
0.02609,-0.0054277,0.040655,0.0031982,0.013156,0.0025246,0,0,0.052907,-0.01726,0,0.0089354,0,0,0,0.040829,0.0030245,0.013156,3.7645,0.019003,0.033959,1.3891e-06,0.48,0.68,0
0.027577,-0.0059218,0.041278,0.0010892,0.01271,0.0033139,0,0,0.037138,-0.015107,0,0.0086163,0,0,0,0.04155,0.00081776,0.01271,4.6824,0.018359,0.036278,1.5933e-06,0.52,0.68,0
0.029061,-0.0062714,0.041513,0.00033268,0.012554,0.0031948,0,0,0.037647,-0.015887,0,0.0083064,0,0,0,0.04176,8.6304e-05,0.012554,4.4098,0.018133,0.037048,1.6495e-06,0.56,0.68,0
0.030589,-0.0065574,0.042248,3.2271e-05,0.012684,0.0028211,0,0,0.038433,-0.016447,0,0.0073349,0,0,0,0.042435,-0.00015542,0.012684,3.8063,0.018321,0.037842,1.7415e-06,0.6,0.68,0
0.032135,-0.0068286,0.042568,-0.00028458,0.012685,0.0023662,0,0,0.038848,-0.016861,0,0.006152,0,0,0,0.042698,-0.00041483,0.012685,3.1509,0.018323,0.038283,1.7854e-06,0.64,0.68,0
0.033697,-0.0070871,0.04277,-0.00065756,0.012634,0.0019973,0,0,0.039177,-0.017278,0,0.0051931,0,0,0,0.042861,-0.00074923,0.012634,2.6278,0.018249,0.038695,1.8204e-06,0.68,0.68,0
0.03527,-0.0073371,0.042995,-0.00099049,0.012601,0.0016436,0,0,0.039512,-0.017669,0,0.0042733,0,0,0,0.043056,-0.0010518,0.012601,2.137,0.018202,0.039112,1.8583e-06,0.72,0.68,0
0.036858,-0.0075755,0.043395,-0.0012009,0.012658,0.0014008,0,0,0.039958,-0.018017,0,0.0036421,0,0,0,0.043439,-0.0012448,0.012658,1.7973,0.018284,0.039607,1.9163e-06,0.76,0.68,0
0.038466,-0.0077998,0.043828,-0.0016852,0.012643,0.0012351,0,0,0.040541,-0.018627,0,0.0032113,0,0,0,0.043862,-0.0017187,0.012643,1.5533,0.018262,0.040363,1.9928e-06,0.8,0.68,0
0.040101,-0.0080002,0.044799,-0.0018873,0.012874,0.00097682,0,0,0.041503,-0.019189,0,0.0025397,0,0,0,0.04482,-0.0019078,0.012874,1.1981,0.018595,0.041367,2.1331e-06,0.84,0.68,0
0.041786,-0.0081809,0.044899,-0.0022231,0.012803,0.0018426,0,0,0.041725,-0.019533,0,0.0047907,0,0,0,0.044971,-0.0022951,0.012803,2.2358,0.018493,0.041814,2.1715e-06,0.88,0.68,0
0.043439,-0.0081327,0.044521,-0.0011983,0.012997,0.00075755,0,0,0.061309,-0.024605,0,0.0038895,0,0,0,0.044547,-0.0012251,0.012997,1.0584,0.018773,0.040695,1.9652e-06,0.92,0.68,0
0.046691,-0.0077813,0.046011,0.0022102,0.014466,0.00075956,0,0,0.082015,-0.031866,0,0.0039497,0,0,0,0.046024,0.002197,0.014466,0.99319,0.020896,0.039161,2.0946e-06,0.96,0.68,0
0.05,-0.0076723,0.046152,0.0016368,0.014337,0.00052412,0,0,0.082721,-0.03302,0,0.0027254,0,0,0,0.046159,0.0016306,0.014337,0.67447,0.020709,0.039729,2.1451e-06,1,0.68,0
0,0,0.03217,0.013787,0.013787,-0.0041284,0,0,0.047796,1.0842e-19,0,-0.021468,0,0,0,0.033055,0.012903,0.013787,-12.094,0.019915,0.019725,3.9147e-07,0,0.72,0
0.0019118,-0.0008587,0.032023,0.012366,0.013317,-0.0040319,0,0,0.048636,-0.0024714,0,-0.020966,0,0,0,0.032818,0.011571,0.013317,-11.152,0.019235,0.02043,4.2717e-07,0.04,0.72,0
0.0038909,-0.0015195,0.032252,0.01031,0.012769,-0.0036172,0,0,0.050656,-0.0063914,0,-0.01881,0,0,0,0.032832,0.0097294,0.012769,-9.1243,0.018443,0.021743,4.9337e-07,0.08,0.72,0
0.0059643,-0.0020272,0.031456,0.0072829,0.011622,-0.003183,0,0,0.051569,-0.011281,0,-0.016552,0,0,0,0.031868,0.0068708,0.011622,-7.3771,0.016787,0.022993,5.3556e-07,0.12,0.72,0
0.0080164,-0.002353,0.030983,0.0050431,0.010808,-0.0034169,0,0,0.052455,-0.014988,0,-0.017768,0,0,0,0.031425,0.0046006,0.010808,-7.3795,0.015611,0.024323,5.7993e-07,0.16,0.72,0
0.010161,-0.0026498,0.030567,0.00352,0.010226,-0.0022696,0,0,0.052887,-0.017436,0,-0.011802,0,0,0,0.030756,0.0033309,0.010226,-4.7635,0.014771,0.02471,5.7629e-07,0.2,0.72,0
0.012247,-0.0030662,0.029836,0.0021366,0.0095917,-0.0012199,0,0,0.052635,-0.019383,0,-0.0063434,0,0,0,0.02989,0.002083,0.0095917,-2.5168,0.013855,0.024916,5.5793e-07,0.24,0.72,0
0.014372,-0.0034931,0.030487,0.0010728,0.0094681,-5.4597e-06,0,0,0.05465,-0.021828,0,-2.839e-05,0,0,0,0.030487,0.0010728,0.0094681,-0.010635,0.013676,0.026244,6.1819e-07,0.28,0.72,0
0.016619,-0.0039546,0.032571,0.0002618,0.0098498,0.00083426,0,0,0.059075,-0.024929,0,0.0043381,0,0,0,0.032593,0.00024027,0.0098498,1.4781,0.014228,0.028777,7.797e-07,0.32,0.72,0
0.019097,-0.0046251,0.034275,-2.0861e-05,0.010276,0.0016652,0,0,0.062397,-0.026773,0,0.0086589,0,0,0,0.034356,-0.00010152,0.010276,2.7732,0.014844,0.030617,9.2345e-07,0.36,0.72,0
0.021611,-0.0053359,0.036035,0.0014337,0.011241,0.0011241,0,0,0.064466,-0.025498,0,0.0058455,0,0,0,0.036072,0.0013972,0.011241,1.8588,0.016237,0.03095,1.0196e-06,0.4,0.72,0
0.024255,-0.0058279,0.037805,0.0042224,0.012608,0.0016895,0,0,0.065512,-0.021803,0,0.0087856,0,0,0,0.03789,0.0041376,0.012608,2.8729,0.018212,0.030415,1.0761e-06,0.44,0.72,0
0.026852,-0.0061218,0.038391,0.0022262,0.012185,0.0023526,0,0,0.0503,-0.017262,0,0.0085799,0,0,0,0.038544,0.0020731,0.012185,3.674,0.017601,0.032675,1.1991e-06,0.48,0.72,0
0.028279,-0.0065175,0.039479,0.000928,0.012122,0.0024269,0,0,0.035564,-0.014552,0,0.0063098,0,0,0,0.039632,0.00077583,0.012122,3.588,0.01751,0.034607,1.3829e-06,0.52,0.72,0
0.029697,-0.0068729,0.039822,0.00063248,0.012136,0.0025504,0,0,0.035992,-0.014955,0,0.0066311,0,0,0,0.039988,0.0004672,0.012136,3.7079,0.01753,0.035169,1.4331e-06,0.56,0.72,0
0.031158,-0.0071949,0.040674,0.00035698,0.012309,0.0023937,0,0,0.036874,-0.015538,0,0.0062235,0,0,0,0.040815,0.00021536,0.012309,3.3859,0.01778,0.036106,1.5348e-06,0.6,0.72,0
0.032647,-0.0074854,0.041198,5.4497e-05,0.012376,0.0021224,0,0,0.037469,-0.016018,0,0.0055183,0,0,0,0.041307,-5.47e-05,0.012376,2.9452,0.017876,0.036758,1.6023e-06,0.64,0.72,0
0.034156,-0.0077624,0.04156,-0.0002831,0.012383,0.001747,0,0,0.03793,-0.016466,0,0.0045423,0,0,0,0.041633,-0.00035591,0.012383,2.3867,0.017886,0.037288,1.653e-06,0.68,0.72,0
0.035681,-0.0080295,0.041884,-0.00064792,0.012371,0.0013741,0,0,0.038367,-0.016924,0,0.0035728,0,0,0,0.041928,-0.00069228,0.012371,1.8486,0.017869,0.037821,1.7024e-06,0.72,0.72,0
0.037225,-0.0082872,0.042215,-0.0010495,0.01235,0.0010412,0,0,0.038825,-0.017419,0,0.002707,0,0,0,0.04224,-0.0010745,0.01235,1.3778,0.017839,0.038405,1.7564e-06,0.76,0.72,0
0.038788,-0.0085307,0.042536,-0.0014885,0.012314,0.00072654,0,0,0.039288,-0.017944,0,0.001889,0,0,0,0.042548,-0.0015005,0.012314,0.94521,0.017787,0.039021,1.8123e-06,0.8,0.72,0
0.040368,-0.0087598,0.042709,-0.0019759,0.01222,0.00054174,0,0,0.039636,-0.018455,0,0.0014085,0,0,0,0.042716,-0.0019825,0.01222,0.69448,0.017651,0.039558,1.8532e-06,0.84,0.72,0
0.041958,-0.0089417,0.043712,-0.0022505,0.012438,0.00045537,0,0,0.040655,-0.019096,0,0.001184,0,0,0,0.043716,-0.002255,0.012438,0.56758,0.017967,0.040667,1.9959e-06,0.88,0.72,0
0.04362,-0.0090519,0.044335,0.00026928,0.013381,0.00079517,0,0,0.059703,-0.022728,0,0.0033084,0,0,0,0.044351,0.00025342,0.013381,1.0746,0.019329,0.039311,1.9021e-06,0.92,0.72,0
0.046735,-0.0090296,0.044971,0.0026956,0.0143,0.00043583,0,0,0.079744,-0.030171,0,0.0022663,0,0,0,0.044975,0.0026911,0.0143,0.5906,0.020655,0.03784,1.9252e-06,0.96,0.72,0
0.05,-0.0090034,0.045516,0.0015447,0.014118,0.00012609,0,0,0.081634,-0.032691,0,0.00065567,0,0,0,0.045516,0.0015443,0.014118,0.1643,0.020393,0.039227,2.0602e-06,1,0.72,0
0,0,0.031224,0.013382,0.013382,-0.0045872,0,0,0.04639,2.1684e-19,0,-0.023854,0,0,0,0.032334,0.012271,0.013382,-13.606,0.019329,0.019532,3.7851e-07,0,0.76,0
0.0018556,-0.00095414,0.031145,0.011869,0.012904,-0.0044278,0,0,0.047426,-0.0026917,0,-0.023025,0,0,0,0.032113,0.0109,0.012904,-12.337,0.018639,0.020285,4.1464e-07,0.04,0.76,0
0.0037941,-0.0017761,0.031366,0.0096996,0.01232,-0.0038068,0,0,0.049521,-0.0068125,0,-0.019795,0,0,0,0.032016,0.0090502,0.01232,-9.6806,0.017795,0.021518,4.7212e-07,0.08,0.76,0
0.0058173,-0.0024428,0.031695,0.007393,0.011726,-0.0031202,0,0,0.051918,-0.011267,0,-0.016225,0,0,0,0.032089,0.0069988,0.011726,-7.2008,0.016938,0.023092,5.4418e-07,0.12,0.76,0
0.0079475,-0.0029753,0.03179,0.0046281,0.010925,-0.0023441,0,0,0.054248,-0.016373,0,-0.012189,0,0,0,0.031991,0.0044273,0.010925,-4.8963,0.015781,0.024958,6.1965e-07,0.16,0.76,0
0.010157,-0.0034498,0.031827,0.00226,0.010226,-0.0019068,0,0,0.056163,-0.020712,0,-0.0099151,0,0,0,0.03195,0.0021375,0.010226,-3.6747,0.014771,0.026703,6.8391e-07,0.2,0.76,0
0.012441,-0.0039385,0.03222,0.0011255,0.010004,-0.001384,0,0,0.057762,-0.023083,0,-0.007197,0,0,0,0.032281,0.001064,0.010004,-2.5436,0.01445,0.027845,7.3579e-07,0.24,0.76,0
0.014778,-0.0044637,0.032786,0.00013829,0.0098774,-0.00092493,0,0,0.059563,-0.025322,0,-0.0048097,0,0,0,0.032812,0.0001121,0.0098774,-1.6215,0.014267,0.029075,7.9903e-07,0.28,0.76,0
0.017206,-0.0050484,0.033493,-0.00066588,0.009848,-0.00073761,0,0,0.061476,-0.027336,0,-0.0038356,0,0,0,0.033508,-0.00068181,0.009848,-1.2365,0.014225,0.030329,8.7236e-07,0.32,0.76,0
0.019696,-0.0056965,0.03468,0.00018115,0.010458,-0.00082304,0,0,0.062976,-0.02672,0,-0.0042798,0,0,0,0.034699,0.00016153,0.010458,-1.3659,0.015106,0.030712,9.4368e-07,0.36,0.76,0
0.022244,-0.0063107,0.036098,0.0019047,0.011401,-0.00033777,0,0,0.064213,-0.02469,0,-0.0017564,0,0,0,0.036101,0.0019013,0.011401,-0.5659,0.016468,0.030578,1.0048e-06,0.4,0.76,0
0.024833,-0.0067219,0.03727,0.0032768,0.012164,0.00059056,0,0,0.065276,-0.023107,0,0.0030709,0,0,0,0.03728,0.0032665,0.012164,0.99499,0.01757,0.030553,1.0568e-06,0.44,0.76,0
0.027466,-0.0068086,0.037144,0.00066165,0.011342,0.0010525,0,0,0.049996,-0.018512,0,0.0044428,0,0,0,0.037178,0.00062739,0.011342,1.7167,0.016383,0.032627,1.1044e-06,0.48,0.76,0
0.028833,-0.007086,0.03873,0.00053039,0.011778,0.0023666,0,0,0.035038,-0.014622,0,0.0061531,0,0,0,0.038876,0.00038434,0.011778,3.5316,0.017013,0.034247,1.3195e-06,0.52,0.76,0
0.030269,-0.0074678,0.039722,0.00081696,0.012162,0.0018938,0,0,0.035828,-0.014748,0,0.0049238,0,0,0,0.039814,0.000725,0.012162,2.7802,0.017567,0.03481,1.4042e-06,0.56,0.76,0
0.031699,-0.0078005,0.039748,0.00057431,0.012097,0.0020315,0,0,0.035947,-0.014979,0,0.0052818,0,0,0,0.039853,0.00046924,0.012097,2.9607,0.017473,0.035048,1.4186e-06,0.6,0.76,0
0.033144,-0.0081101,0.040109,0.00048195,0.012177,0.0018033,0,0,0.036311,-0.015204,0,0.0046887,0,0,0,0.040191,0.00040006,0.012177,2.6002,0.01759,0.035403,1.4579e-06,0.64,0.76,0
0.034604,-0.0084044,0.040365,9.0607e-05,0.012137,0.0014487,0,0,0.036697,-0.01566,0,0.0037666,0,0,0,0.040417,3.8563e-05,0.012137,2.0574,0.017531,0.035892,1.4972e-06,0.68,0.76,0
0.03608,-0.008691,0.040695,-0.00027594,0.012126,0.0010724,0,0,0.03714,-0.016122,0,0.0027882,0,0,0,0.040723,-0.00030399,0.012126,1.4983,0.017515,0.036438,1.5452e-06,0.72,0.76,0
0.037575,-0.008969,0.041049,-0.00068497,0.012109,0.00067642,0,0,0.037622,-0.016632,0,0.0017587,0,0,0,0.04106,-0.00069593,0.012109,0.92832,0.017491,0.037052,1.5995e-06,0.76,0.76,0
0.03909,-0.0092353,0.041356,-0.0012348,0.012036,0.0003882,0,0,0.038116,-0.017253,0,0.0010093,0,0,0,0.04136,-0.0012383,0.012036,0.52217,0.017386,0.037754,1.6561e-06,0.8,0.76,0
0.040625,-0.0094766,0.041588,-0.0017877,0.01194,0.00015386,0,0,0.038542,-0.017846,0,0.00040004,0,0,0,0.041588,-0.0017882,0.01194,0.20324,0.017247,0.038399,1.7048e-06,0.84,0.76,0
0.042173,-0.0097085,0.042555,-0.002207,0.012105,-4.2947e-05,0,0,0.039586,-0.018605,0,-0.00011166,0,0,0,0.042556,-0.0022071,0.012105,-0.054972,0.017484,0.039596,1.8415e-06,0.88,0.76,0
0.043791,-0.0099509,0.043194,0.00032432,0.013056,-0.00055882,0,0,0.058134,-0.022068,0,-0.0019444,0,0,0,0.043202,0.00031674,0.013056,-0.72806,0.018858,0.038237,1.7553e-06,0.92,0.76,0
0.046824,-0.010195,0.043831,0.0027759,0.013982,-0.00029338,0,0,0.077608,-0.029136,0,-0.0015256,0,0,0,0.043833,0.0027738,0.013982,-0.40941,0.020196,0.03676,1.7744e-06,0.96,0.76,0
0.05,-0.010287,0.044332,0.0016466,0.013794,-0.0004451,0,0,0.0794,-0.031582,0,-0.0023145,0,0,0,0.044337,0.001642,0.013794,-0.59736,0.019924,0.038101,1.8971e-06,1,0.76,0
0,0,0.031062,0.013312,0.013312,-0.0051637,0,0,0.046149,-6.5052e-19,0,-0.026851,0,0,0,0.032455,0.011919,0.013312,-15.096,0.019229,0.019876,3.9659e-07,0,0.8,0
0.001846,-0.001074,0.030926,0.01133,0.012677,-0.0049241,0,0,0.047448,-0.003502,0,-0.025605,0,0,0,0.032094,0.010162,0.012677,-13.341,0.018311,0.020789,4.3875e-07,0.04,0.8,0
0.0037959,-0.0020645,0.031468,0.0090109,0.012144,-0.0042531,0,0,0.050244,-0.0081454,0,-0.022116,0,0,0,0.032247,0.0082324,0.012144,-10.373,0.017541,0.022317,5.1228e-07,0.08,0.8,0
0.0058655,-0.0029286,0.031965,0.0064392,0.011521,-0.0033515,0,0,0.053155,-0.013214,0,-0.017428,0,0,0,0.032398,0.0060065,0.011521,-7.3567,0.016642,0.024112,5.9496e-07,0.12,0.8,0
0.0080482,-0.0036629,0.032356,0.0039406,0.010889,-0.0025316,0,0,0.055815,-0.018066,0,-0.013164,0,0,0,0.03258,0.0037168,0.010889,-5.0515,0.015729,0.026029,6.7922e-07,0.16,0.8,0
0.010331,-0.0043068,0.032663,0.0018988,0.010368,-0.0019382,0,0,0.057965,-0.022021,0,-0.010079,0,0,0,0.032785,0.0017772,0.010368,-3.5909,0.014977,0.027728,7.5104e-07,0.2,0.8,0
0.012685,-0.0049128,0.032962,0.0005334,0.010049,-0.0016211,0,0,0.059574,-0.024739,0,-0.0084297,0,0,0,0.033043,0.00045256,0.010049,-2.8547,0.014515,0.029008,8.0678e-07,0.24,0.8,0
0.015097,-0.0055189,0.033262,-0.0002705,0.0098976,-0.0015023,0,0,0.060749,-0.026437,0,-0.0078118,0,0,0,0.03333,-0.00033767,0.0098976,-2.56,0.014297,0.029894,8.4954e-07,0.28,0.8,0
0.017545,-0.0061415,0.033605,-0.00044956,0.0099465,-0.0015798,0,0,0.061511,-0.02703,0,-0.0082152,0,0,0,0.033678,-0.00052269,0.0099465,-2.6505,0.014367,0.030352,8.8132e-07,0.32,0.8,0
0.020018,-0.0067627,0.034074,0.00017072,0.010273,-0.0016254,0,0,0.061882,-0.026267,0,-0.0084522,0,0,0,0.034152,9.2974e-05,0.010273,-2.7386,0.014839,0.030281,9.0161e-07,0.36,0.8,0
0.022496,-0.0073111,0.034771,0.0013111,0.010825,-0.0014376,0,0,0.06226,-0.024735,0,-0.0074755,0,0,0,0.034833,0.0012495,0.010825,-2.4557,0.015636,0.029966,9.2123e-07,0.4,0.8,0
0.024998,-0.0076765,0.035936,0.0025082,0.011533,-0.00056987,0,0,0.063446,-0.023465,0,-0.0029633,0,0,0,0.035945,0.0024984,0.011533,-0.9764,0.016659,0.029969,9.7063e-07,0.44,0.8,0
0.027572,-0.0076028,0.041829,0.00060823,0.012731,-0.00035687,0,0,0.052421,-0.021592,0,-0.0021233,0,0,0,0.041842,0.00059437,0.012731,-0.72173,0.018389,0.036717,1.8897e-06,0.48,0.8,0
0.02943,-0.0076872,0.033987,0.00027392,0.010278,0.0014808,0,0,0.042438,-0.017803,0,0.0050011,0,0,0,0.034054,0.00020744,0.010278,2.4086,0.014847,0.030103,1.0528e-06,0.52,0.8,0
0.030805,-0.0080528,0.038422,0.00014279,0.011569,0.0020611,0,0,0.034908,-0.014854,0,0.0053588,0,0,0,0.038532,3.2134e-05,0.011569,3.0732,0.016711,0.034223,1.2976e-06,0.56,0.8,0
0.032223,-0.0083932,0.039233,0.0011414,0.012112,0.0018369,0,0,0.035257,-0.014262,0,0.0047759,0,0,0,0.039321,0.0010531,0.012112,2.7545,0.017496,0.034111,1.3395e-06,0.6,0.8,0
0.033626,-0.0087017,0.03904,0.00086618,0.011972,0.0014767,0,0,0.035188,-0.014437,0,0.0038393,0,0,0,0.039097,0.00080914,0.011972,2.2119,0.017293,0.034105,1.326e-06,0.64,0.8,0
0.035038,-0.0090152,0.039152,0.00022949,0.011814,0.001235,0,0,0.035539,-0.01506,0,0.0032109,0,0,0,0.039191,0.00019034,0.011814,1.8155,0.017065,0.034682,1.3593e-06,0.68,0.8,0
0.036469,-0.0093193,0.039571,0.00027942,0.011955,0.00083082,0,0,0.0359,-0.015178,0,0.0021601,0,0,0,0.039588,0.00026186,0.011955,1.2108,0.017268,0.034978,1.3984e-06,0.72,0.8,0
0.03791,-0.0096178,0.039876,-0.00011595,0.011928,0.00031108,0,0,0.036332,-0.015657,0,0.00080881,0,0,0,0.039878,-0.00011838,0.011928,0.44565,0.017229,0.035539,1.4442e-06,0.76,0.8,0
0.039376,-0.0099109,0.040303,-0.00093862,0.011809,-0.00013459,0,0,0.037041,-0.016572,0,-0.00034995,0,0,0,0.040303,-0.00093906,0.011809,-0.18699,0.017058,0.036574,1.5224e-06,0.8,0.8,0
0.040873,-0.010188,0.041258,-0.0014248,0.01195,-0.00029487,0,0,0.0381,-0.017387,0,-0.00076666,0,0,0,0.041259,-0.0014268,0.01195,-0.3958,0.017261,0.037816,1.6515e-06,0.84,0.8,0
0.042424,-0.01043,0.041445,-0.0019523,0.011848,-0.001352,0,0,0.038477,-0.01794,0,-0.0035151,0,0,0,0.041487,-0.0019944,0.011848,-1.7826,0.017114,0.038476,1.7004e-06,0.88,0.8,0
0.043951,-0.010817,0.041223,-0.00081936,0.012121,-0.00064057,0,0,0.056569,-0.02243,0,-0.0028709,0,0,0,0.041236,-0.00083218,0.012121,-0.92607,0.017508,0.037425,1.5502e-06,0.92,0.8,0
0.046949,-0.011361,0.042567,0.0023897,0.013487,-0.00066413,0,0,0.075608,-0.028853,0,-0.0034534,0,0,0,0.042578,0.0023788,0.013487,-0.94675,0.019481,0.035956,1.6417e-06,0.96,0.8,0
0.05,-0.01153,0.042686,0.0018192,0.013351,-0.00081464,0,0,0.076269,-0.029984,0,-0.0042361,0,0,0,0.042702,0.0018029,0.013351,-1.1416,0.019285,0.036521,1.6843e-06,1,0.8,0
0,0,0.031495,0.013498,0.013498,-0.0059342,0,0,0.046793,2.1684e-19,0,-0.030858,0,0,0,0.033275,0.011717,0.013498,-16.702,0.019497,0.020725,4.4586e-07,0,0.84,0
0.0018717,-0.0012343,0.031268,0.010791,0.012618,-0.0056226,0,0,0.048491,-0.0047501,0,-0.029237,0,0,0,0.03271,0.0093484,0.012618,-14.387,0.018225,0.021911,4.9996e-07,0.04,0.84,0
0.0038793,-0.0024277,0.031921,0.0079796,0.01197,-0.0048468,0,0,0.051872,-0.010375,0,-0.025203,0,0,0,0.032865,0.0070356,0.01197,-11.021,0.01729,0.023749,5.8912e-07,0.08,0.84,0
0.0060214,-0.0034999,0.032454,0.0053205,0.011332,-0.0037641,0,0,0.054916,-0.015631,0,-0.019573,0,0,0,0.032967,0.004808,0.011332,-7.7533,0.016369,0.02553,6.7009e-07,0.12,0.84,0
0.0082726,-0.0044206,0.032782,0.0031043,0.010766,-0.0027429,0,0,0.057242,-0.01992,0,-0.014263,0,0,0,0.033034,0.0028529,0.010766,-5.2363,0.015551,0.027105,7.3649e-07,0.16,0.84,0
0.010601,-0.0052115,0.032932,0.0014302,0.010309,-0.002051,0,0,0.058821,-0.023084,0,-0.010665,0,0,0,0.033065,0.0012972,0.010309,-3.7095,0.01489,0.028357,7.8482e-07,0.2,0.84,0
0.012978,-0.0059176,0.032968,0.00030755,0.0099828,-0.0017194,0,0,0.059763,-0.025156,0,-0.0089408,0,0,0,0.033059,0.00021729,0.0099828,-3.0052,0.01442,0.02921,8.1435e-07,0.24,0.84,0
0.015382,-0.0065786,0.032946,-0.00027393,0.0098015,-0.0016734,0,0,0.060175,-0.026196,0,-0.0087019,0,0,0,0.03303,-0.00035802,0.0098015,-2.8766,0.014158,0.029644,8.2742e-07,0.28,0.84,0
0.017792,-0.0072107,0.032885,-0.00031652,0.0097706,-0.0017666,0,0,0.060098,-0.026226,0,-0.0091863,0,0,0,0.032979,-0.00041026,0.0097706,-3.0372,0.014113,0.029641,8.2498e-07,0.32,0.84,0
0.02019,-0.0077979,0.0328,0.00013725,0.0098812,-0.0018363,0,0,0.059589,-0.025334,0,-0.009549,0,0,0,0.032903,3.4333e-05,0.0098812,-3.2078,0.014273,0.029217,8.0772e-07,0.36,0.84,0
0.022559,-0.0082895,0.032622,0.00082708,0.010035,-0.001701,0,0,0.058727,-0.02394,0,-0.0088455,0,0,0,0.032713,0.00073634,0.010035,-3.0538,0.014495,0.028489,7.7508e-07,0.4,0.84,0
0.024888,-0.0085991,0.032497,0.0014514,0.010184,-0.001232,0,0,0.058012,-0.022706,0,-0.0064063,0,0,0,0.032545,0.0014026,0.010184,-2.2689,0.014711,0.027812,7.449e-07,0.44,0.84,0
0.0272,-0.0086056,0.033347,0.00070856,0.010217,-0.001015,0,0,0.060138,-0.024721,0,-0.0052781,0,0,0,0.033378,0.00067703,0.010217,-1.7795,0.014757,0.029128,8.2546e-07,0.48,0.84,0
0.029699,-0.0084548,0.038524,-0.00054334,0.011394,-0.00020769,0,0,0.04923,-0.021443,0,-0.0019207,0,0,0,0.038547,-0.00056615,0.011394,-0.60332,0.016458,0.034715,1.4885e-06,0.52,0.84,0
0.031403,-0.0086562,0.031475,-0.00043671,0.0093115,0.00058782,0,0,0.039466,-0.017259,0,0.00088234,0,0,0,0.031515,-0.00047655,0.0093115,0.57718,0.01345,0.028393,8.6886e-07,0.56,0.84,0
0.03273,-0.0089414,0.036803,0.00029019,0.011128,0.0010485,0,0,0.033378,-0.014089,0,0.0027261,0,0,0,0.036833,0.00026011,0.011128,1.6435,0.016074,0.03253,1.1257e-06,0.6,0.84,0
0.034074,-0.009265,0.038026,0.0006415,0.0116,0.0017304,0,0,0.034353,-0.014246,0,0.0044992,0,0,0,0.038106,0.00056157,0.0116,2.6446,0.016756,0.033421,1.2359e-06,0.64,0.84,0
0.035479,-0.0096092,0.038591,0.00087983,0.011841,0.0011579,0,0,0.034775,-0.01425,0,0.0030105,0,0,0,0.038627,0.00084431,0.011841,1.757,0.017104,0.033659,1.277e-06,0.68,0.84,0
0.036856,-0.0099053,0.038193,0.0008775,0.011721,0.00070863,0,0,0.034413,-0.014097,0,0.0018424,0,0,0,0.038206,0.00086405,0.011721,1.0875,0.016931,0.03327,1.2347e-06,0.72,0.84,0
0.038232,-0.010222,0.038358,0.00052717,0.011666,-3.3868e-06,0,0,0.0347,-0.01448,0,-8.8056e-06,0,0,0,0.038358,0.00052717,0.011666,-0.0051294,0.01685,0.033673,1.2621e-06,0.76,0.84,0
0.039632,-0.010561,0.039024,-0.0003169,0.011612,-0.00063208,0,0,0.035635,-0.015508,0,-0.0016434,0,0,0,0.039034,-0.00032706,0.011612,-0.92024,0.016773,0.034956,1.3622e-06,0.8,0.84,0
0.041082,-0.010868,0.039071,-0.0014709,0.01128,-0.0013059,0,0,0.036128,-0.016576,0,-0.0033955,0,0,0,0.039113,-0.0015129,0.01128,-1.8431,0.016293,0.035978,1.4124e-06,0.84,0.84,0
0.042522,-0.011144,0.035319,-0.00097208,0.010304,-0.0016402,0,0,0.044834,-0.019886,0,-0.0059327,0,0,0,0.035393,-0.0010462,0.010304,-2.6098,0.014884,0.032298,1.2158e-06,0.88,0.84,0
0.044492,-0.011745,0.04376,-0.0011442,0.012785,-0.00018754,0,0,0.055907,-0.024615,0,-0.00021565,0,0,0,0.043764,-0.0011479,0.012785,-0.12438,0.018467,0.039822,2.2363e-06,0.92,0.84,0
0.04726,-0.012503,0.038663,0.0019477,0.012183,-0.00053602,0,0,0.068848,-0.026613,0,-0.0027873,0,0,0,0.038671,0.0019399,0.012183,-0.83624,0.017598,0.032831,1.2388e-06,0.96,0.84,0
0.05,-0.012686,0.038296,0.0015488,0.011953,-0.00088007,0,0,0.06849,-0.027052,0,-0.0045764,0,0,0,0.038317,0.0015277,0.011953,-1.3712,0.017266,0.032842,1.2204e-06,1,0.84,0
0,0,0.032556,0.013952,0.013952,-0.0069906,0,0,0.048368,4.3368e-19,0,-0.036351,0,0,0,0.034889,0.011618,0.013952,-18.463,0.020153,0.022197,5.4078e-07,0,0.88,0
0.0019347,-0.001454,0.03211,0.010098,0.012662,-0.0064872,0,0,0.050564,-0.006668,0,-0.033734,0,0,0,0.03388,0.0083282,0.012662,-15.258,0.01829,0.023684,6.06e-07,0.04,0.88,0
0.0040451,-0.0028946,0.032733,0.006541,0.011782,-0.0054283,0,0,0.054472,-0.013627,0,-0.028227,0,0,0,0.033813,0.0054605,0.011782,-11.257,0.017019,0.02578,7.0479e-07,0.08,0.88,0
0.0062925,-0.0041791,0.033081,0.0038931,0.011092,-0.0039307,0,0,0.05717,-0.018718,0,-0.02044,0,0,0,0.033601,0.003373,0.011092,-7.5371,0.016022,0.027203,7.6005e-07,0.12,0.88,0
0.0086188,-0.0052565,0.033086,0.0021696,0.010577,-0.0026776,0,0,0.058525,-0.021859,0,-0.013924,0,0,0,0.033316,0.0019394,0.010577,-4.9135,0.015278,0.028073,7.8422e-07,0.16,0.88,0
0.010974,-0.0061535,0.032816,0.00095234,0.010131,-0.0018942,0,0,0.058982,-0.023863,0,-0.0098497,0,0,0,0.032928,0.00084013,0.010131,-3.3901,0.014633,0.028598,7.8777e-07,0.2,0.88,0
0.013337,-0.0069253,0.032486,0.0001729,0.0097975,-0.0015501,0,0,0.058989,-0.025024,0,-0.0080603,0,0,0,0.03256,9.8711e-05,0.0097975,-2.7401,0.014152,0.028861,7.8103e-07,0.24,0.88,0
0.015693,-0.0076146,0.032141,-0.0002019,0.0095817,-0.0014966,0,0,0.058654,-0.025437,0,-0.0077824,0,0,0,0.03221,-0.00027101,0.0095817,-2.6437,0.01384,0.028846,7.6541e-07,0.28,0.88,0
0.01803,-0.0082396,0.031776,-0.00019576,0.0094741,-0.0015654,0,0,0.057985,-0.025142,0,-0.0081401,0,0,0,0.031852,-0.00027222,0.0094741,-2.7964,0.013685,0.028529,7.403e-07,0.32,0.88,0
0.020332,-0.0087895,0.031369,0.00012199,0.0094472,-0.0015868,0,0,0.056996,-0.024246,0,-0.0082512,0,0,0,0.031449,4.1618e-05,0.0094472,-2.8996,0.013646,0.027919,7.0511e-07,0.36,0.88,0
0.022589,-0.0092263,0.030958,0.00060824,0.0094698,-0.0014228,0,0,0.055869,-0.02304,0,-0.0073987,0,0,0,0.031024,0.00054168,0.0094698,-2.6783,0.013679,0.027143,6.6497e-07,0.4,0.88,0
0.024802,-0.0094929,0.030728,0.00093444,0.0094988,-0.001098,0,0,0.055197,-0.022267,0,-0.0057096,0,0,0,0.030769,0.00089403,0.0094988,-2.1077,0.013721,0.026636,6.4007e-07,0.44,0.88,0
0.027005,-0.0095805,0.030146,0.00012755,0.009082,-0.00080914,0,0,0.054766,-0.023282,0,-0.0042075,0,0,0,0.030167,0.00010575,0.009082,-1.5429,0.013118,0.026729,6.209e-07,0.48,0.88,0
0.029183,-0.0094929,0.030656,-0.00052655,0.0090387,-0.0014018,0,0,0.056204,-0.02487,0,-0.0072893,0,0,0,0.030719,-0.00058944,0.0090387,-2.5688,0.013056,0.027775,6.7131e-07,0.52,0.88,0
0.031501,-0.00939,0.034982,-0.0010416,0.010182,-0.00098,0,0,0.045125,-0.020009,0,-0.0046923,0,0,0,0.035031,-0.0010909,0.010182,-1.8732,0.014708,0.032014,1.1214e-06,0.56,0.88,0
0.03305,-0.0095204,0.032742,0.00061869,0.010008,-0.00040973,0,0,0.039405,-0.017176,0,-0.0033038,0,0,0,0.032816,0.00054422,0.010008,-1.5238,0.014456,0.028752,1.0449e-06,0.6,0.88,0
0.034654,-0.0098414,0.030265,0.00074037,0.0093015,0.00044396,0,0,0.037277,-0.014925,0,0.00051466,0,0,0,0.030295,0.00070951,0.0093015,0.38192,0.013435,0.026364,7.4246e-07,0.64,0.88,0
0.035919,-0.010155,0.035669,0.00069026,0.010908,0.00052361,0,0,0.03219,-0.013283,0,0.0013614,0,0,0,0.035677,0.00068242,0.010908,0.85743,0.015756,0.031166,1.0093e-06,0.68,0.88,0
0.037229,-0.010447,0.036748,0.00093868,0.011306,0.00038278,0,0,0.033075,-0.013478,0,0.00099524,0,0,0,0.036752,0.00093459,0.011306,0.61236,0.016331,0.031922,1.0955e-06,0.72,0.88,0
0.038565,-0.010776,0.036832,0.00064665,0.011244,4.4741e-05,0,0,0.033265,-0.013776,0,0.00011633,0,0,0,0.036832,0.00064659,0.011244,0.070841,0.016241,0.032222,1.1126e-06,0.76,0.88,0
0.03989,-0.011151,0.035844,-0.00031515,0.010659,-0.00018945,0,0,0.032741,-0.014266,0,-0.00049257,0,0,0,0.035845,-0.00031614,0.010659,-0.30018,0.015396,0.032112,1.0553e-06,0.8,0.88,0
0.041184,-0.011514,0.030596,-0.000924,0.0089016,-0.00057266,0,0,0.038654,-0.017207,0,-0.0010812,0,0,0,0.030625,-0.00095263,0.0089016,-0.64716,0.012858,0.027985,8.0566e-07,0.84,0.88,0
0.042856,-0.01198,0.037244,-0.0022209,0.010507,-0.00050619,0,0,0.048614,-0.022638,0,-0.00098371,0,0,0,0.037262,-0.0022386,0.010507,-0.51367,0.015177,0.034922,1.39e-06,0.88,0.88,0
0.045346,-0.012843,0.033007,-8.01e-05,0.0098779,-0.00023008,0,0,0.060135,-0.025891,0,-0.0011964,0,0,0,0.033008,-8.17e-05,0.0098779,-0.3984,0.014268,0.029404,8.1858e-07,0.92,0.88,0
0.047667,-0.013489,0.032477,0.0011908,0.0101,-0.0003529,0,0,0.058179,-0.023164,0,-0.0018351,0,0,0,0.032481,0.0011868,0.0101,-0.64619,0.014589,0.027925,7.4633e-07,0.96,0.88,0
0.05,-0.013694,0.032511,0.0010912,0.010081,-0.00098353,0,0,0.058319,-0.023373,0,-0.0051144,0,0,0,0.032542,0.0010605,0.010081,-1.7912,0.014561,0.02808,7.5411e-07,1,0.88,0
0,0,0.034791,0.01491,0.01491,-0.0084988,0,0,0.051689,-8.6736e-19,0,-0.044194,0,0,0,0.037929,0.011772,0.01491,-20.265,0.021537,0.024737,7.3543e-07,0,0.92,0
0.0020676,-0.0017678,0.033544,0.0086202,0.012649,-0.0075039,0,0,0.054326,-0.010476,0,-0.03902,0,0,0,0.035629,0.0065354,0.012649,-15.527,0.018271,0.026569,7.9405e-07,0.04,0.92,0
0.0043461,-0.0035179,0.033927,0.0041536,0.011424,-0.0054444,0,0,0.058508,-0.018904,0,-0.028311,0,0,0,0.034892,0.0031893,0.011424,-10.044,0.016502,0.028492,8.6188e-07,0.08,0.92,0
0.0067482,-0.0049973,0.033925,0.0024424,0.01091,-0.0034517,0,0,0.059838,-0.022016,0,-0.017949,0,0,0,0.034299,0.0020684,0.01091,-6.1839,0.015759,0.028844,8.5337e-07,0.12,0.92,0
0.0091332,-0.0061693,0.03306,0.0012839,0.010303,-0.002095,0,0,0.059167,-0.02345,0,-0.010894,0,0,0,0.033197,0.0011464,0.010303,-3.7559,0.014882,0.028594,7.9875e-07,0.16,0.92,0
0.011482,-0.0071205,0.032245,0.00053842,0.0098352,-0.0013874,0,0,0.058267,-0.024171,0,-0.0072147,0,0,0,0.032306,0.00047783,0.0098352,-2.5008,0.014206,0.028333,7.531e-07,0.2,0.92,0
0.013794,-0.0079195,0.031573,8.1863e-05,0.0094965,-0.0011098,0,0,0.057399,-0.024478,0,-0.0057711,0,0,0,0.031612,4.2799e-05,0.0094965,-2.0159,0.013717,0.028063,7.1611e-07,0.24,0.92,0
0.016074,-0.0086136,0.031001,-0.00012298,0.0092634,-0.0010806,0,0,0.056518,-0.024405,0,-0.0056193,0,0,0,0.031039,-0.00016045,0.0092634,-1.9861,0.013381,0.027716,6.8256e-07,0.28,0.92,0
0.018316,-0.0092221,0.03047,-0.00010203,0.0091102,-0.0011319,0,0,0.055534,-0.023952,0,-0.0058859,0,0,0,0.030511,-0.00014388,0.0091102,-2.1175,0.013159,0.027234,6.4806e-07,0.32,0.92,0
0.020516,-0.0097375,0.029952,9.7538e-05,0.009015,-0.0011226,0,0,0.054437,-0.023185,0,-0.0058373,0,0,0,0.029995,5.5389e-05,0.009015,-2.1503,0.013022,0.026616,6.1138e-07,0.36,0.92,0
0.022671,-0.010133,0.029475,0.00036385,0.0089518,-0.00097366,0,0,0.053361,-0.022329,0,-0.005063,0,0,0,0.029508,0.00033132,0.0089518,-1.9135,0.01293,0.025963,5.7616e-07,0.4,0.92,0
0.024785,-0.01038,0.028976,0.00042118,0.0088193,-0.00071171,0,0,0.052409,-0.021835,0,-0.0037009,0,0,0,0.028994,0.00040346,0.0088193,-1.4268,0.012739,0.025449,5.4495e-07,0.44,0.92,0
0.026864,-0.010468,0.028542,0.00024975,0.0086375,-0.00057927,0,0,0.051751,-0.021808,0,-0.0030122,0,0,0,0.028554,0.0002379,0.0086375,-1.1725,0.012476,0.025189,5.2373e-07,0.48,0.92,0
0.028925,-0.010444,0.027478,-0.00057237,0.0080716,-0.0006058,0,0,0.050456,-0.022474,0,-0.0031502,0,0,0,0.027491,-0.00058545,0.0080716,-1.2367,0.011659,0.024903,4.8218e-07,0.52,0.92,0
0.0309,-0.010323,0.027019,-0.00093097,0.0078264,-0.001517,0,0,0.049901,-0.022769,0,-0.0078885,0,0,0,0.027101,-0.0010131,0.0078264,-3.0977,0.011305,0.0249,4.6927e-07,0.56,0.92,0
0.032917,-0.010316,0.027424,0.00032865,0.0083259,-0.00126,0,0,0.049656,-0.020793,0,-0.0065518,0,0,0,0.027483,0.00027019,0.0083259,-2.6566,0.012026,0.024212,4.6621e-07,0.6,0.92,0
0.034873,-0.010449,0.030032,-0.0001874,0.0089535,-0.00092748,0,0,0.0383,-0.016175,0,-0.0047688,0,0,0,0.030102,-0.00025736,0.0089535,-2.2376,0.012933,0.026965,6.9701e-07,0.64,0.92,0
0.036193,-0.010672,0.02794,0.00068356,0.0085871,-0.00062581,0,0,0.033545,-0.014091,0,-0.0033361,0,0,0,0.027986,0.0006377,0.0085871,-1.9425,0.012404,0.024371,6.4463e-07,0.68,0.92,0
0.037556,-0.010984,0.028769,0.00096444,0.00892,-0.00015658,0,0,0.034405,-0.013978,0,-0.00083016,0,0,0,0.028772,0.00096163,0.00892,-0.48544,0.012884,0.024808,6.9453e-07,0.72,0.92,0
0.038945,-0.011324,0.028915,0.00080134,0.008915,0.00036795,0,0,0.034667,-0.014252,0,0.0016522,0,0,0,0.028923,0.00079329,0.008915,0.95923,0.012877,0.025077,7.1036e-07,0.76,0.92,0
0.040329,-0.011702,0.028625,0.00018917,0.0086443,0.00060889,0,0,0.034634,-0.015098,0,0.0032946,0,0,0,0.028669,0.00014511,0.0086443,1.8332,0.012486,0.025371,7.0785e-07,0.8,0.92,0
0.041716,-0.012223,0.031299,-0.0017752,0.0088571,0.0005512,0,0,0.041018,-0.018776,0,0.0027274,0,0,0,0.031318,-0.0017944,0.0088571,1.1774,0.012794,0.029286,8.0589e-07,0.84,0.92,0
0.043865,-0.013024,0.028314,-0.0010804,0.00817,0.00031931,0,0,0.052373,-0.024051,0,0.0016604,0,0,0,0.028317,-0.0010839,0.00817,0.62231,0.011801,0.026038,5.3577e-07,0.88,0.92,0
0.045906,-0.013817,0.028024,-0.00030552,0.0083155,-0.00063937,0,0,0.051242,-0.022415,0,-0.0033247,0,0,0,0.028038,-0.00031994,0.0083155,-1.2922,0.012011,0.025177,5.0644e-07,0.92,0.92,0
0.047965,-0.014356,0.028458,0.000791,0.0087747,-0.00046485,0,0,0.051176,-0.020758,0,-0.0024172,0,0,0,0.028466,0.00078319,0.0087747,-0.96229,0.012675,0.024677,5.0776e-07,0.96,0.92,0
0.05,-0.014556,0.028347,0.00090502,0.0087756,-0.00096017,0,0,0.050886,-0.020464,0,-0.0049929,0,0,0,0.028381,0.00087146,0.0087756,-2.0015,0.012676,0.024532,5.0134e-07,1,0.92,0
0,0,0.039224,0.01681,0.01681,-0.01102,0,0,0.058276,3.4694e-18,0,-0.057302,0,0,0,0.043734,0.0123,0.01681,-22.259,0.024282,0.029439,1.2074e-06,0,0.96,0
0.002331,-0.0022921,0.035951,0.0036005,0.011865,-0.0067335,0,0,0.062623,-0.021489,0,-0.035014,0,0,0,0.037297,0.002255,0.011865,-11.301,0.017139,0.031361,1.097e-06,0.04,0.96,0
0.0050098,-0.0044069,0.036716,0.0027075,0.011827,-0.0039516,0,0,0.064712,-0.023711,0,-0.020548,0,0,0,0.037169,0.0022543,0.011827,-6.5413,0.017084,0.031248,1.0856e-06,0.08,0.96,0
0.007508,-0.0059403,0.033963,0.0013506,0.010594,-0.0019734,0,0,0.060759,-0.024033,0,-0.010262,0,0,0,0.034082,0.0012316,0.010594,-3.4502,0.015302,0.029312,8.6265e-07,0.12,0.96,0
0.0098705,-0.0071325,0.032147,0.00065714,0.0098412,-0.0010781,0,0,0.057995,-0.023879,0,-0.0056064,0,0,0,0.032184,0.00062027,0.0098412,-1.9586,0.014215,0.028111,7.4083e-07,0.16,0.96,0
0.012148,-0.0080872,0.031003,0.00025249,0.0093767,-0.00066531,0,0,0.056229,-0.023723,0,-0.0034596,0,0,0,0.031017,0.00023811,0.0093767,-1.2389,0.013544,0.027379,6.7181e-07,0.2,0.96,0
0.014369,-0.0088835,0.030224,2.6179e-05,0.0090751,-0.00053622,0,0,0.054987,-0.023527,0,-0.0027884,0,0,0,0.030233,1.666e-05,0.0090751,-1.017,0.013108,0.026859,6.2699e-07,0.24,0.96,0
0.016546,-0.0095669,0.0296,-6.651e-05,0.0088601,-0.00054713,0,0,0.053924,-0.023209,0,-0.0028451,0,0,0,0.02961,-7.6597e-05,0.0088601,-1.0562,0.012798,0.02638,5.9099e-07,0.28,0.96,0
0.018683,-0.010156,0.029029,-4.5997e-05,0.0086949,-0.00059075,0,0,0.052869,-0.022726,0,-0.0030719,0,0,0,0.029041,-5.7995e-05,0.0086949,-1.1635,0.012559,0.025859,5.5721e-07,0.32,0.96,0
0.020776,-0.010644,0.028489,5.6598e-05,0.0085637,-0.00058391,0,0,0.051806,-0.022118,0,-0.0030363,0,0,0,0.028501,4.4611e-05,0.0085637,-1.176,0.01237,0.025297,5.2468e-07,0.36,0.96,0
0.022827,-0.011013,0.027992,0.00016998,0.0084487,-0.00048449,0,0,0.050814,-0.021525,0,-0.0025194,0,0,0,0.028001,0.00016155,0.0084487,-0.99733,0.012204,0.024759,4.9528e-07,0.4,0.96,0
0.024841,-0.01124,0.027574,0.00022366,0.0083394,-0.00032361,0,0,0.050011,-0.021101,0,-0.0016828,0,0,0,0.027578,0.00021983,0.0083394,-0.67778,0.012046,0.024337,4.7204e-07,0.44,0.96,0
0.026828,-0.011325,0.027142,0.00010577,0.0081743,-0.00016851,0,0,0.049316,-0.020978,0,-0.00087623,0,0,0,0.027143,0.00010472,0.0081743,-0.35708,0.011807,0.024042,4.5208e-07,0.48,0.96,0
0.028786,-0.011291,0.026888,2.3026e-05,0.0080732,-0.00017619,0,0,0.048918,-0.020931,0,-0.0009162,0,0,0,0.026889,2.187e-05,0.0080732,-0.37575,0.011661,0.023882,4.4095e-07,0.52,0.96,0
0.030742,-0.011212,0.026295,-0.00057737,0.0077153,-0.00035474,0,0,0.048307,-0.021561,0,-0.0018447,0,0,0,0.0263,-0.00058205,0.0077153,-0.75619,0.011144,0.023842,4.2253e-07,0.56,0.96,0
0.032651,-0.011184,0.025132,-0.0006647,0.0073402,-0.00081882,0,0,0.046259,-0.020813,0,-0.0042579,0,0,0,0.025158,-0.00069067,0.0073402,-1.8162,0.010603,0.022914,3.7181e-07,0.6,0.96,0
0.034442,-0.011175,0.024311,6.0984e-05,0.0073117,-0.0013144,0,0,0.044199,-0.018852,0,-0.0068351,0,0,0,0.024382,-1.0056e-05,0.0073117,-3.0936,0.010561,0.02168,3.292e-07,0.64,0.96,0
0.036187,-0.011283,0.02343,0.00062701,0.007217,-0.000748,0,0,0.042153,-0.017134,0,-0.0038896,0,0,0,0.023454,0.0006025,0.007217,-1.8768,0.010425,0.020367,2.8462e-07,0.68,0.96,0
0.037814,-0.011565,0.022506,0.0007649,0.0069812,-0.00024432,0,0,0.040364,-0.016162,0,-0.0012705,0,0,0,0.022509,0.00076216,0.0069812,-0.64378,0.010084,0.0194,2.4917e-07,0.72,0.96,0
0.039416,-0.011916,0.022527,0.00066239,0.0069568,0.00032801,0,0,0.040483,-0.016366,0,0.0017057,0,0,0,0.022532,0.00065747,0.0069568,0.85929,0.010049,0.019503,2.5133e-07,0.76,0.96,0
0.041053,-0.012359,0.023477,0.00019519,0.0071015,0.00057079,0,0,0.042575,-0.017957,0,0.0029681,0,0,0,0.023491,0.0001812,0.0071015,1.4036,0.010258,0.020734,2.918e-07,0.8,0.96,0
0.042822,-0.013057,0.023867,-0.00087894,0.0068964,0.00065651,0,0,0.044123,-0.020216,0,0.0034139,0,0,0,0.023884,-0.00089635,0.0068964,1.5187,0.0099614,0.021948,3.2126e-07,0.84,0.96,0
0.044583,-0.013904,0.024347,-0.00072387,0.007087,-0.00034374,0,0,0.044876,-0.020308,0,-0.0017875,0,0,0,0.024352,-0.00072858,0.007087,-0.78536,0.010237,0.022228,3.3802e-07,0.88,0.96,0
0.046412,-0.014636,0.024947,2.8863e-05,0.0074928,-0.00051011,0,0,0.045381,-0.019406,0,-0.0026526,0,0,0,0.024957,1.8425e-05,0.0074928,-1.1723,0.010823,0.022168,3.5262e-07,0.92,0.96,0
0.048213,-0.01515,0.024797,0.00036266,0.007548,-0.00038765,0,0,0.044848,-0.018682,0,-0.0020158,0,0,0,0.024803,0.00035651,0.007548,-0.90868,0.010903,0.021761,3.4099e-07,0.96,0.96,0
0.05,-0.015331,0.024772,0.00053713,0.0075927,-0.00087045,0,0,0.044666,-0.018345,0,-0.0045263,0,0,0,0.024803,0.00050591,0.0075927,-2.0544,0.010967,0.021642,3.3867e-07,1,0.96,0
0,0,0.06181,0.02649,0.02649,-0.016764,0,0,0.091832,-6.9389e-18,0,-0.087171,0,0,0,0.068499,0.0198,0.02649,-21.754,0.038263,0.045723,4.557e-06,0,1,0
0.0036733,-0.0034869,0.044814,0.0027942,0.014282,-0.0065632,0,0,0.079381,-0.029869,0,-0.034129,0,0,0,0.045815,0.0017929,0.014282,-8.6742,0.02063,0.039295,2.088e-06,0.04,1,0
0.0063505,-0.0054148,0.034627,0.00099493,0.010687,-0.0018068,0,0,0.062246,-0.025198,0,-0.0093956,0,0,0,0.034724,0.00089813,0.010687,-3.0663,0.015436,0.030148,9.2344e-07,0.08,1,0
0.0086529,-0.0069199,0.030637,-0.00032517,0.0090935,-0.00090108,0,0,0.056013,-0.024489,0,-0.0046856,0,0,0,0.030663,-0.00035138,0.0090935,-1.6656,0.013135,0.027535,6.6243e-07,0.12,1,0
0.010832,-0.0080796,0.029373,-0.00042107,0.0086855,-0.00042401,0,0,0.053787,-0.023677,0,-0.0022049,0,0,0,0.029379,-0.0004271,0.0086855,-0.81519,0.012546,0.026454,5.8447e-07,0.16,1,0
0.012956,-0.0090183,0.028787,-0.00045285,0.0085002,-0.0002537,0,0,0.052745,-0.023278,0,-0.0013192,0,0,0,0.028789,-0.00045505,0.0085002,-0.49708,0.012278,0.025952,5.5069e-07,0.2,1,0
0.015051,-0.0098017,0.028398,-0.0004421,0.0083867,-0.00020994,0,0,0.052029,-0.022955,0,-0.0010917,0,0,0,0.028399,-0.00044363,0.0083867,-0.41705,0.012114,0.025597,5.2853e-07,0.24,1,0
0.017118,-0.01047,0.02795,-0.00043134,0.0082555,-0.00022891,0,0,0.051205,-0.022586,0,-0.0011903,0,0,0,0.027952,-0.00043318,0.0082555,-0.46209,0.011925,0.025191,5.0387e-07,0.28,1,0
0.019148,-0.01104,0.027377,-0.00041575,0.0080884,-0.00025735,0,0,0.05015,-0.022111,0,-0.0013382,0,0,0,0.027379,-0.00041814,0.0080884,-0.53048,0.011683,0.02467,4.7344e-07,0.32,1,0
0.02113,-0.011507,0.026736,-0.00039222,0.0079032,-0.00025541,0,0,0.048966,-0.021568,0,-0.0013281,0,0,0,0.026739,-0.00039462,0.0079032,-0.53937,0.011416,0.024082,4.4074e-07,0.36,1,0
0.023065,-0.011855,0.026175,-0.00034982,0.0077475,-0.00020736,0,0,0.047911,-0.021053,0,-0.0010783,0,0,0,0.026176,-0.00035144,0.0077475,-0.44789,0.011191,0.023547,4.1296e-07,0.4,1,0
0.024963,-0.012068,0.025824,-0.00031643,0.0076523,-0.00011483,0,0,0.047247,-0.020719,0,-0.0005971,0,0,0,0.025825,-0.00031693,0.0076523,-0.25167,0.011053,0.023207,3.9606e-07,0.44,1,0
0.026845,-0.012146,0.025842,-0.00020575,0.0076907,-4.1609e-05,0,0,0.047192,-0.020531,0,-0.00021636,0,0,0,0.025842,-0.00020582,0.0076907,-0.091525,0.011109,0.023133,3.9507e-07,0.48,1,0
0.028738,-0.012119,0.026007,-0.00022768,0.0077339,5.1178e-06,0,0,0.047511,-0.0207,0,2.6613e-05,0,0,0,0.026007,-0.00022768,0.0077339,0.011177,0.011171,0.023298,4.0306e-07,0.52,1,0
0.030645,-0.012048,0.025953,-0.00037065,0.0076746,-0.00012916,0,0,0.047523,-0.020918,0,-0.00067162,0,0,0,0.025954,-0.00037129,0.0076746,-0.28112,0.011086,0.023365,4.0286e-07,0.56,1,0
0.03254,-0.01198,0.026049,0.00021922,0.0078804,-0.00031249,0,0,0.047238,-0.019919,0,-0.0016249,0,0,0,0.026053,0.00021544,0.0078804,-0.69303,0.011383,0.022984,3.9783e-07,0.6,1,0
0.034424,-0.011957,0.025758,0.00030122,0.0078178,-0.00023406,0,0,0.046645,-0.019543,0,-0.0012171,0,0,0,0.02576,0.00029907,0.0078178,-0.52673,0.011292,0.022658,3.8318e-07,0.64,1,0
0.036272,-0.012043,0.025345,0.00042199,0.00773,-0.00035965,0,0,0.045798,-0.019001,0,-0.0018701,0,0,0,0.02535,0.0004168,0.00773,-0.82658,0.011166,0.022199,3.6318e-07,0.68,1,0
0.038088,-0.012276,0.025192,0.001027,0.0078658,-0.00010229,0,0,0.045049,-0.017781,0,-0.00053191,0,0,0,0.025193,0.0010266,0.0078658,-0.24252,0.011362,0.021575,3.4648e-07,0.72,1,0
0.039876,-0.012633,0.025286,0.00099325,0.0078838,0.00013744,0,0,0.045246,-0.017915,0,0.00071467,0,0,0,0.025287,0.00099248,0.0078838,0.32414,0.011388,0.021686,3.5102e-07,0.76,1,0
0.041708,-0.013139,0.025156,7.2927e-05,0.0075687,0.0002468,0,0,0.045727,-0.019489,0,0.0012834,0,0,0,0.025159,7.0499e-05,0.0075687,0.56368,0.010933,0.022305,3.6041e-07,0.8,1,0
0.043534,-0.01384,0.024585,-0.00021758,0.0073103,-0.00020635,0,0,0.044915,-0.019572,0,-0.001073,0,0,0,0.024587,-0.00021929,0.0073103,-0.47664,0.010559,0.022029,3.4061e-07,0.84,1,0
0.045301,-0.014649,0.023285,-0.00024642,0.0069115,-0.00022159,0,0,0.042571,-0.018611,0,-0.0011523,0,0,0,0.023287,-0.0002485,0.0069115,-0.53949,0.0099834,0.020897,2.8992e-07,0.88,1,0
0.04694,-0.015369,0.021614,-0.00080211,0.0062435,-0.00035414,0,0,0.039962,-0.018319,0,-0.0018415,0,0,0,0.021619,-0.0008077,0.0062435,-0.90489,0.0090183,0.019863,2.3822e-07,0.92,1,0
0.048498,-0.015851,0.020695,-0.00075663,0.0059814,-0.00020415,0,0,0.038254,-0.017519,0,-0.0010616,0,0,0,0.020697,-0.00075857,0.0059814,-0.54522,0.0086398,0.019004,2.0887e-07,0.96,1,0
0.05,-0.016024,0.020277,-0.00082126,0.0058368,-0.00083047,0,0,0.037546,-0.017311,0,-0.0043184,0,0,0,0.02031,-0.0008539,0.0058368,-2.2506,0.008431,0.018737,1.9839e-07,1,1,0
